 vasp.5.2.11 25Nov10 complex
 executed on             LinuxIFC date 2018.12.14  22:42:11

 INCAR:
 POTCAR:   PAW_PBE C 08Apr2002
 POTCAR:   PAW_PBE C 08Apr2002
   VRHFIN =C: s2p2

   TITEL  = PAW_PBE C 08Apr2002
   POMASS =   12.011; ZVAL   =    4.000    mass and valenz
   ENMAX  =  400.000; ENMIN  =  300.000 eV
   QCUT   =   -5.516; QGAM   =   11.032    optimization parameters

   Description
     l     E      TYP  RCUT    TYP  RCUT
     0   .000     23  1.200
     0   .000     23  1.200
     1   .000     23  1.500
     1  2.500     23  1.500
     2   .000      7  1.500

 PAW_PBE C 08Apr2002                    :

 POSCAR: graphite
  positions in direct lattice
 exchange correlation table for  LEXCH =        8
   RHO(1)=    0.500       N(1)  =     2000
   RHO(2)=  100.500       N(2)  =     4000

 VTST: version 3.1, (03/28/14)

 CHAIN: initializing optimizer

 OPT: Using VASP Conjugate-Gradient optimizer
 CHAIN: Read ICHAIN            0

 POSCAR: graphite
  positions in direct lattice

 ion  position               nearest neighbor table
   1  0.000  0.000  0.073-   8 1.42   2 1.42   4 1.42
   2  0.333  0.167  0.073-   7 1.42   1 1.42   3 1.42
   3  0.500  0.000  0.073-   6 1.42   4 1.42   2 1.42
   4  0.833  0.167  0.073-   3 1.42   5 1.42   1 1.42
   5  0.000  0.500  0.073-   4 1.42   6 1.42   8 1.42
   6  0.333  0.667  0.073-   3 1.42   5 1.42   7 1.42
   7  0.500  0.500  0.073-   8 1.42   2 1.42   6 1.42
   8  0.833  0.667  0.073-   1 1.42   7 1.42   5 1.42

  LATTYP: Found a hexagonal cell.
 ALAT       =     4.9200000763
 C/A-ratio  =     0.5000000000

  Lattice vectors:

 A1 = (   4.9200000763,   0.0000000000,   0.0000000000)
 A2 = (  -2.4600000381,   4.2608450527,   0.0000000000)
 A3 = (   0.0000000000,   0.0000000000,   2.4600000381)
 Subroutine PRICEL returns following result:

  LATTYP: Found a hexagonal cell.
 ALAT       =     2.4600000382
 C/A-ratio  =     1.0000000000

  Lattice vectors:

 A1 = (   2.4600000382,   0.0000000000,   0.0000000000)
 A2 = (  -1.2300000191,   2.1304225263,   0.0000000000)
 A3 = (   0.0000000000,   0.0000000000,   2.4600000381)

   4 primitive cells build up your supercell.

Analysis of symmetry for initial positions (statically):

 Routine SETGRP: Setting up the symmetry group for a
 hexagonal supercell.

 Subroutine GETGRP returns: Found  8 space group operations
 (whereof  2 operations were pure point group operations)
 out of a pool of 24 trial point group operations.

The static configuration has the point symmetry C_1h.
 The point group associated with its full space group is D_2h.

Analysis of symmetry for dynamics (positions and initial velocities):

 Subroutine DYNSYM returns: Found  8 space group operations
 (whereof  2 operations were pure point group operations)
 out of a pool of  8 trial space group operations
 (whereof  2 operations were pure point group operations)
 and found also     4 'primitive' translations

The dynamic configuration has the point symmetry C_1h.
 The point group associated with its full space group is D_2h.

Automatic generation of k-mesh.
 generate k-points for:    3    3    6

 Subroutine IBZKPT returns following result:

 Found     16 irreducible k-points:

 Following reciprocal coordinates:
            Coordinates               Weight
  0.000000  0.000000  0.000000      1.000000
  0.333333  0.000000  0.000000      4.000000
  0.333333  0.333333  0.000000      2.000000
 -0.333333  0.333333  0.000000      2.000000
  0.000000  0.000000  0.166667      2.000000
  0.333333  0.000000  0.166667      8.000000
  0.333333  0.333333  0.166667      4.000000
 -0.333333  0.333333  0.166667      4.000000
  0.000000  0.000000  0.333333      2.000000
  0.333333  0.000000  0.333333      8.000000
  0.333333  0.333333  0.333333      4.000000
 -0.333333  0.333333  0.333333      4.000000
  0.000000  0.000000  0.500000      1.000000
  0.333333  0.000000  0.500000      4.000000
  0.333333  0.333333  0.500000      2.000000
 -0.333333  0.333333  0.500000      2.000000

 Following cartesian coordinates:
            Coordinates               Weight
  0.000000  0.000000  0.000000      1.000000
  0.067751  0.039116  0.000000      4.000000
  0.067751  0.117348  0.000000      2.000000
 -0.067751  0.039116  0.000000      2.000000
  0.000000  0.000000  0.067751      2.000000
  0.067751  0.039116  0.067751      8.000000
  0.067751  0.117348  0.067751      4.000000
 -0.067751  0.039116  0.067751      4.000000
  0.000000  0.000000  0.135501      2.000000
  0.067751  0.039116  0.135501      8.000000
  0.067751  0.117348  0.135501      4.000000
 -0.067751  0.039116  0.135501      4.000000
  0.000000  0.000000  0.203252      1.000000
  0.067751  0.039116  0.203252      4.000000
  0.067751  0.117348  0.203252      2.000000
 -0.067751  0.039116  0.203252      2.000000

 TETIRR: Found     75 inequivalent tetrahedra from      324

 I would recommend the setting:
   dimension x,y,z NGX =    36 NGY =   36 NGZ =   18
 SYSTEM =  NAME
 POSCAR =  graphite

 Startparameter for this run:
   NWRITE =      2    write-flag & timer
   PREC   = accura    normal or accurate (medium, high low for compatibility)
   ISTART =      0    job   : 0-new  1-cont  2-samecut
   ICHARG =      2    charge: 1-file 2-atom 10-const
   ISPIN  =      1    spin polarized calculation?
   LNONCOLLINEAR =      F non collinear calculations
   LSORBIT =      F    spin-orbit coupling
   INIWAV =      1    electr: 0-lowe 1-rand  2-diag
   LASPH  =      F    aspherical Exc in radial PAW
   METAGGA=      F    non-selfconsistent MetaGGA calc.

 Electronic Relaxation 1
   ENCUT  =  500.0 eV  36.75 Ry    6.06 a.u.   8.97  8.97  4.49*2*pi/ulx,y,z
   ENINI  =  500.0     initial cutoff
   ENAUG  =  644.9 eV  augmentation charge cutoff
   NELM   =    100;   NELMIN=  5; NELMDL= -5     # of ELM steps
   EDIFF  = 0.1E-03   stopping-criterion for ELM
   LREAL  =      F    real-space projection
   LCOMPAT=      F    compatible to vasp.4.4
   GGA_COMPAT  = T    GGA compatible to vasp.4.4-vasp.4.6
   LMAXPAW     = -100 max onsite density
   LMAXMIX     =    2 max onsite mixed and CHGCAR
   VOSKOWN=      0    Vosko Wilk Nusair interpolation
   ROPT   =    0.00000
 Ionic relaxation
   EDIFFG = -.1E-01   stopping-criterion for IOM
   NSW    =    500    number of steps for IOM
   NBLOCK =      1;   KBLOCK =    500    inner block; outer block
   IBRION =      2    ionic relax: 0-MD 1-quasi-New 2-CG
   NFREE  =      1    steps in history (QN), initial steepest desc. (CG)
   ISIF   =      3    stress and relaxation
   IWAVPR =     11    prediction:  0-non 1-charg 2-wave 3-comb
   ISYM   =      2    0-nonsym 1-usesym 2-fastsym
   LCORR  =      T    Harris-Foulkes like correction to forces

   POTIM  = 0.5000    time-step for ionic-motion
   TEIN   =    0.0    initial temperature
   TEBEG  =    0.0;   TEEND  =   0.0 temperature during run
   SMASS  =  -3.00    Nose mass-parameter (am)
   estimated Nose-frequenzy (Omega)   =  0.10E-29 period in steps =****** mass=  -0.553E-27a.u.
   NPACO  =    256;   APACO  = 16.0  distance and # of slots for P.C.
   PSTRESS=    0.0 pullay stress

  Mass of Ions in am
   POMASS =  12.01
  Ionic Valenz
   ZVAL   =   4.00
  Atomic Wigner-Seitz radii
  virtual crystal weights
   VCA    =   1.00
   NELECT =      32.0000    total number of electrons
   NUPDOWN=      -1.0000    fix difference up-down

 DOS related values:
   EMIN   =  10.00;   EMAX   =-10.00  energy-range for DOS
   EFERMI =   0.00
   ISMEAR =    -5;   SIGMA  =   0.10  broadening in eV -4-tet -1-fermi 0-gaus

 Electronic relaxation 2 (details)
   IALGO  =     38    algorithm
   LDIAG  =      T    sub-space diagonalisation (order eigenvalues)
   LSUBROT=      T    optimize rotation matrix (better conditioning)
   TURBO    =      0    0=normal 1=particle mesh
   IRESTART =      0    0=no restart 2=restart with 2 vectors
   NREBOOT  =      0    no. of reboots
   NMIN     =      0    reboot dimension
   EREF     =   0.00    reference energy to select bands
   IMIX   =      4    mixing-type and parameters
     AMIX     =   0.40;   BMIX     =  1.00
     AMIX_MAG =   1.60;   BMIX_MAG =  1.00
     AMIN     =   0.10
     WC   =   100.;   INIMIX=   1;  MIXPRE=   1

 Intra band minimization:
   WEIMIN = 0.0010     energy-eigenvalue tresh-hold
   EBREAK =  0.12E-05  absolut break condition
   DEPER  =   0.30     relativ break condition

   TIME   =   0.40     timestep for ELM

  volume/ion in A,a.u.               =       6.45        43.50
  Fermi-wavevector in a.u.,A,eV,Ry     =   1.396345  2.638710 26.528371  1.949780
  Thomas-Fermi vector in A             =   2.519709

 Write flags
   LWAVE  =      T    write WAVECAR
   LCHARG =      T    write CHGCAR
   LVTOT  =      F    write LOCPOT, total local potential
   LVHAR  =      F    write LOCPOT, Hartree potential only
   LELF   =      F    write electronic localiz. function (ELF)
   LORBIT =      0    0 simple, 1 ext, 2 COOP (PROOUT)

 Dipole corrections
   LMONO  =      F    monopole corrections only (constant potential shift)
   LDIPOL =      F    correct potential (dipole corrections)
   IDIPOL =      0    1-x, 2-y, 3-z, 4-all directions
   EPSILON=  1.0000000 bulk dielectric constant

 Exchange correlation treatment:
   GGA     =    --    GGA type
   VOSKOWN=      0    Vosko Wilk Nusair interpolation
   LHFCALC =     F    Hartree Fock is set to
   LHFONE  =     F    Hartree Fock one center treatment
   AEXX    =    0.0000 exact exchange contribution

 Linear response parameters
   LEPSILON=     F    determine dielectric tensor
   LRPA    =     F    only Hartree local field effects (RPA)
   LNABLA  =     F    use nabla operator in PAW spheres
   LVEL    =     F    velocity operator in full k-point grid
   LINTERFAST=   F  fast interpolation
   KINTER  =     0    interpolate to denser k-point grid
   CSHIFT  =0.1000    complex shift for real part using Kramers Kronig
   OMEGAMAX=  -1.0    maximum frequency
   RTIME   =    0.100 relaxation time in fs

 Orbital magnetization related:
   ORBITALMAG=     F  switch on orbital magnetization
   LCHIMAG   =     F  perturbation theory with respect to B field

 conjugate gradient relaxation of ions
 charge density and potential will be updated during run
 non-spin polarized calculation
 Variant of blocked Davidson
 Davidson routine will perform the subspace rotation
 perform sub-space diagonalisation
    after iterative eigenvector-optimisation
 modified Broyden-mixing scheme, WC =      100.0
 initial mixing is a Kerker type mixing with AMIX =  0.4000 and BMIX =      1.0000
 Hartree-type preconditioning will be used
 using additional bands           24
 reciprocal scheme for non local part
 calculate Harris-corrections to forces
   (improved forces if not selfconsistent)
 use gradient corrections
 use of overlap-Matrix (Vanderbilt PP)
 Fermi weights with tetrahedron method with Bloechl corrections

  energy-cutoff  :      500.00
  volume of cell :       51.57
      direct lattice vectors                 reciprocal lattice vectors
     4.920000076  0.000000000  0.000000000     0.203252029  0.117347614  0.000000000
    -2.460000038  4.260845053  0.000000000     0.000000000  0.234695228  0.000000000
[...]
   -.296E+00 0.171E+00 -.121E-05   -.444E-02 0.261E-02 -.721E-15   -.549E-01 0.317E-01 -.434E-18   0.905E-01 -.522E-01 0.212E-08
   0.296E+00 -.171E+00 -.121E-05   0.443E-02 -.256E-02 0.135E-15   0.549E-01 -.317E-01 0.325E-18   -.905E-01 0.522E-01 0.203E-08
   -.296E+00 0.171E+00 -.121E-05   -.446E-02 0.257E-02 -.101E-14   -.549E-01 0.317E-01 -.108E-18   0.905E-01 -.522E-01 0.212E-08
   0.296E+00 -.171E+00 -.121E-05   0.448E-02 -.255E-02 -.756E-15   0.549E-01 -.317E-01 0.000E+00   -.905E-01 0.522E-01 0.203E-08
   -.296E+00 0.171E+00 -.121E-05   -.446E-02 0.258E-02 -.215E-15   -.549E-01 0.317E-01 -.379E-18   0.905E-01 -.522E-01 0.212E-08
   0.296E+00 -.171E+00 -.121E-05   0.444E-02 -.261E-02 0.299E-15   0.549E-01 -.317E-01 0.542E-18   -.905E-01 0.522E-01 0.203E-08
   -.296E+00 0.171E+00 -.121E-05   -.448E-02 0.255E-02 -.695E-15   -.549E-01 0.317E-01 -.271E-18   0.905E-01 -.522E-01 0.212E-08
   0.296E+00 -.171E+00 -.121E-05   0.449E-02 -.259E-02 0.113E-14   0.549E-01 -.317E-01 -.976E-18   -.905E-01 0.522E-01 0.203E-08
   -.820E-04 0.472E-04 -.970E-05   0.227E-14 0.174E-13 -.183E-14   0.125E-15 -.625E-16 -.130E-17   -.793E-08 0.458E-08 0.166E-07

 POSITION                                       TOTAL-FORCE (eV/Angst)
      0.00000      0.00000      0.18000        -0.265226      0.153128     -0.000000
      1.22998      0.71016      0.18000         0.265226     -0.153128      0.000000
      2.46000      0.00000      0.18000        -0.265226      0.153128     -0.000000
      3.68998      0.71016      0.18000         0.265226     -0.153128      0.000000
     -1.23000      2.13042      0.18000        -0.265226      0.153128     -0.000000
     -0.00002      2.84058      0.18000         0.265226     -0.153128      0.000000
      1.23000      2.13042      0.18000        -0.265226      0.153128      0.000000
      2.45998      2.84058      0.18000         0.265226     -0.153128      0.000000
    total drift:                               -0.000082      0.000047     -0.000010

  FREE ENERGIE OF THE ION-ELECTRON SYSTEM (eV)
  free  energy   TOTEN  =       -70.348175 eV

  energy  without entropy=      -70.348175  energy(sigma->0) =      -70.348175

 stress matrix after NEB project (eV)
      0.61786      0.63368      0.00000
      0.63368      1.34957     -0.00000
      0.00000      0.00000     22.92924
  FORCES: max atom, RMS     0.306257    0.306257
  FORCE total and by dimension    0.866225    0.265226
  Stress total and by dimension   22.994704   22.929243

[...]

 BZINTS: Fermi energy:  5.641122; 32.000000 electrons
         Band energy:-140.031119;  BLOECHL correction: -0.166266

[...]

 BZINTS: Fermi energy:  6.498039; 32.000000 electrons
         Band energy: -84.044141;  BLOECHL correction: -0.231795

[...]

 d Force =-0.6667286E-01[-0.170E+00, 0.363E-01]  d Energy = 0.1826463E+01-0.189E+01
 d Force =-0.4406881E+00[-0.882E+00, 0.610E-03]  d Ewald  =-0.1254245E+03 0.125E+03

 stress matrix after NEB project (eV)
     -1.59631     -1.88830      0.00000
     -1.88830     -3.77673      0.00000
      0.00000      0.00000     12.51134
  FORCES: max atom, RMS     1.432709    1.432709
  FORCE total and by dimension    4.052313    1.240762
  Stress total and by dimension   13.434174   12.511344
 Steepest descent step on ions:
 trial-energy change:   -1.826463  1 .order   -2.367136   -3.224775   -1.509498
  (g-gl).g = 0.322E+01      g.g   = 0.322E+01  gl.gl    = 0.000E+00
 g(Force)  = 0.362E-01   g(Stress)= 0.319E+01 ortho     = 0.000E+00
 gamma     =   0.00000
 trial     =   1.00000
 opt step  =   1.88003  (harmonic =   1.88003) maximal distance =0.02405539
 next E    =   -73.379514   (d E  =  -3.03134)

[...]

 d Force =-0.2220544E+00[-0.295E+00,-0.149E+00]  d Energy = 0.3472058E+00-0.569E+00
 d Force =-0.1131183E+01[-0.149E+01,-0.776E+00]  d Ewald  =-0.1094798E+03 0.108E+03

[...]

 d Force =-0.1273882E-01[-0.141E+01, 0.138E+01]  d Energy =-0.1253268E+00 0.113E+00
 d Force = 0.6675665E+00[-0.563E+01, 0.696E+01]  d Ewald  =-0.9896767E+02 0.996E+02

 stress matrix after NEB project (eV)
     -0.03250      1.68393      0.00000
      1.68393      1.91194      0.00000
      0.00000      0.00000     -4.16939
  FORCES: max atom, RMS     2.883388    2.883388
  FORCE total and by dimension    8.155452    2.497087
  Stress total and by dimension    5.168333    4.169392
 Conjugate gradient step on ions:
 trial-energy change:    0.125327  1 .order    0.010445   -1.802180    1.823070
  (g-gl).g = 0.356E+01      g.g   = 0.356E+01  gl.gl    = 0.322E+01
 g(Force)  = 0.309E+01   g(Stress)= 0.467E+00 ortho     =-0.428E-03
 gamma     =   1.10417
 trial     =   0.50626
 opt step  =   0.22785  (harmonic =   0.25167) maximal distance =0.02373172
 next E    =   -72.916914   (d E  =  -0.39507)

[...]

 d Force = 0.4464989E+00[ 0.121E+00, 0.772E+00]  d Energy = 0.5168581E+00-0.704E-01
 d Force = 0.1325944E+01[-0.435E+00, 0.309E+01]  d Ewald  = 0.5676466E+02-0.554E+02

[...]

 d Force = 0.6596262E-02[ 0.197E-02, 0.112E-01]  d Energy =-0.2245589E-03 0.682E-02
 d Force =-0.5681622E-01[-0.734E-01,-0.402E-01]  d Ewald  = 0.4965118E+01-0.502E+01

[...]

 d Force = 0.1436687E-03[-0.578E-04, 0.345E-03]  d Energy = 0.7342412E-02-0.720E-02
 d Force =-0.1376750E-01[-0.147E-01,-0.129E-01]  d Ewald  =-0.3324689E+01 0.331E+01

 stress matrix after NEB project (eV)
      1.77017     -0.02698      0.00000
     -0.02698      1.73901      0.00000
      0.00000      0.00000     -0.21898
  FORCES: max atom, RMS     0.013325    0.013325
  FORCE total and by dimension    0.037689    0.011540
  Stress total and by dimension    2.491401    1.770170
 Conjugate gradient step on ions:
 trial-energy change:   -0.007342  1 .order   -0.014376   -0.061119    0.032367
  (g-gl).g = 0.773E-01      g.g   = 0.137E+00  gl.gl    = 0.356E+01
 g(Force)  = 0.245E-02   g(Stress)= 0.135E+00 ortho     = 0.664E-02
 gamma     =   0.02172
 trial     =   0.44543
 opt step  =   0.24129  (harmonic =   0.29121) maximal distance =0.00025666
 next E    =   -72.928586   (d E  =  -0.01544)

[...]

 d Force =-0.1764538E-04[-0.621E-04, 0.268E-04]  d Energy = 0.8318016E-02-0.834E-02
 d Force = 0.6624059E-02[ 0.643E-02, 0.682E-02]  d Ewald  = 0.1559701E+01-0.155E+01

[...]

 d Force = 0.1296605E-04[ 0.102E-04, 0.157E-04]  d Energy =-0.2224147E-03 0.235E-03
 d Force =-0.1639269E-02[-0.165E-02,-0.163E-02]  d Ewald  =-0.3911067E+00 0.389E+00

[...]

 d Force = 0.8067164E-07[ 0.804E-07, 0.810E-07]  d Energy =-0.4433937E-05 0.451E-05
 d Force =-0.1310728E-04[-0.131E-04,-0.131E-04]  d Ewald  =-0.3115618E-02 0.310E-02

[...]

 d Force =-0.1496220E-04[-0.927E-04, 0.627E-04]  d Energy =-0.7929101E-03 0.778E-03
 d Force =-0.1055486E-01[-0.109E-01,-0.102E-01]  d Ewald  = 0.6241221E+00-0.635E+00

 stress matrix after NEB project (eV)
      0.00715     -0.04324      0.00000
     -0.04324     -0.04278      0.00000
      0.00000      0.00000     -0.15968
  FORCES: max atom, RMS     0.029340    0.029340
  FORCE total and by dimension    0.082985    0.025409
  Stress total and by dimension    0.176405    0.159682
 Conjugate gradient step on ions:
 trial-energy change:    0.000793  1 .order   -0.000084   -0.000190    0.000021
  (g-gl).g =-0.794E-03      g.g   = 0.458E-03  gl.gl    = 0.137E+00
 g(Force)  = 0.152E-03   g(Stress)= 0.305E-03 ortho     = 0.819E-05
 gamma     =  -0.00579
 trial     =   0.41508
 opt step  =   0.37327  (harmonic =   0.37327) maximal distance =0.00030750
 next E    =   -72.928669   (d E  =  -0.00009)

[...]

 d Force = 0.8536333E-05[ 0.774E-05, 0.933E-05]  d Energy = 0.8939088E-04-0.809E-04
 d Force = 0.1092316E-02[ 0.109E-02, 0.110E-02]  d Ewald  =-0.6281382E-01 0.639E-01

[...]

 d Force = 0.1199191E-04[ 0.992E-05, 0.141E-04]  d Energy = 0.6028202E-03-0.591E-03
 d Force = 0.1973036E-02[ 0.197E-02, 0.198E-02]  d Ewald  = 0.5985020E+00-0.597E+00

 stress matrix after NEB project (eV)
      0.00585     -0.03327      0.00000
     -0.03327     -0.03256      0.00000
      0.00000      0.00000     -0.11590
  FORCES: max atom, RMS     0.017158    0.017158
  FORCE total and by dimension    0.048529    0.014859
  Stress total and by dimension    0.129382    0.115896
 Conjugate gradient step on ions:
 trial-energy change:   -0.000603  1 .order   -0.000083   -0.000098   -0.000068
  (g-gl).g = 0.416E-03      g.g   = 0.419E-03  gl.gl    = 0.458E-03
 g(Force)  = 0.228E-03   g(Stress)= 0.190E-03 ortho     = 0.350E-05
 gamma     =   0.90812
 trial     =   0.23324
 opt step  =   0.75903  (harmonic =   0.75903) maximal distance =0.00020366
 next E    =   -72.928040   (d E  =  -0.00016)

[...]

 eigenvalue-minimisations  :  1480
 total energy-change (2. order) : 0.2760972E-03  (-0.1906277E-04)
 number of electron      31.9999993 magnetization
 augmentation part        0.7600972 magnetization

[...]

 Broyden mixing:
  rms(total) = 0.47558E-03    rms(broyden)= 0.47518E-03
  rms(prec ) = 0.94244E-03
  weight for this iteration     100.00

 eigenvalues of (default mixing * dielectric matrix)
  average eigenvalue GAMMA=   1.8884
  2.4879  1.5887  1.5887

[...]

----------------------------------------- Iteration   14(   5)  ---------------------------------------

 BZINTS: Fermi energy:  5.207064; 32.000000 electrons
         Band energy:-127.008866;  BLOECHL correction: -0.106137

 eigenvalue-minimisations  :   640
 total energy-change (2. order) :-0.1078600E-04  (-0.1052964E-06)
 number of electron      31.9999993 magnetization
 augmentation part        0.7601290 magnetization

 Free energy of the ion-electron system (eV)
  alpha Z        PSCENC =        77.44856975
  Ewald energy   TEWEN  =      -976.82658726
  -1/2 Hartree   DENC   =      -328.97712533
  -exchange  EXHF       =         0.00000000
  -V(xc)+E(xc)   XCENC  =       115.48978670
  PAW double counting   =       560.76520522     -571.00811758
  entropy T*S    EENTRO =         0.00000000
  eigenvalues    EBANDS =      -127.00886568
  atomic energy  EATOM  =      1177.18737338
  free energy    TOTEN  =       -72.92976080 eV

  energy without entropy =      -72.92976080  energy(sigma->0) =      -72.92976080

 average (electrostatic) potential at core
  the test charge radii are     0.6991
  (the norm of the test charge is              1.0000)
       1 -50.2640       2 -50.2640       3 -50.2640       4 -50.2640       5 -50.2640
       6 -50.2640       7 -50.2640       8 -50.2640

 E-fermi :   5.2071     XC(G=0): -10.6051     alpha+bet :-11.9278

[...]

 k-point  16 :      -0.3333    0.3333    0.5000
  band No.  band energies     occupation
      1     -13.5095      2.00000
      2     -11.5805      2.00000
      3      -9.8088      2.00000
      4      -9.8088      2.00000
      5      -6.0779      2.00000
      6      -6.0779      2.00000
      7      -4.3487      2.00000
      8      -2.8092      2.00000
      9      -2.8092      2.00000
     10      -2.7757      2.00000
     11      -0.5897      2.00000
     12      -0.4413      2.00000
     13      -0.1106      2.00000
     14       1.0841      2.00000
     15       1.5230      2.00000
     16       1.5230      2.00000
     17       6.9614     -0.06219
     18       6.9614      0.00000
     19       9.3733      0.00000
     20      12.9774      0.00000
     21      13.6626      0.00000
     22      14.2183      0.00000
     23      15.6547      0.00000
     24      15.6547      0.00000
     25      15.9715      0.00000
     26      16.1549      0.00000
     27      16.1549      0.00000
     28      17.5185      0.00000
     29      18.4174      0.00000
     30      19.5076      0.00000
     31      21.1411      0.00000
     32      21.1411      0.00000
     33      21.4623      0.00000
     34      22.9793      0.00000
     35      23.7836      0.00000
     36      23.7836      0.00000
     37      24.3255      0.00000
     38      26.0717      0.00000
     39      26.2261      0.00000
     40      26.2261      0.00000

 soft charge-density along one line, spin component           1
         0         1         2         3         4         5         6         7         8         9
 total charge-density along one line

------------------------ aborting loop because EDIFF is reached ----------------------------------------

  FORCE on cell =-STRESS in cart. coord.  units (eV):
  Direction    XX          YY          ZZ          XY          YZ          ZX
  Alpha Z    77.44857    77.44857    77.44857
  Ewald     103.33547    94.07981 -1174.24279    -8.01564     0.00000    -0.00000
  Hartree   284.00433   282.23220  -237.25386    -1.53471     0.00000    -0.00000
  E(xc)    -117.10760  -117.14229  -121.26841    -0.03004     0.00000    -0.00000
  Local    -797.14675  -787.37149   931.52465     8.46563    -0.00000     0.00000
  n-local   -27.86379   -27.85924   -26.37984     0.30432    -0.10965    -0.07201
  augment    -3.07475    -3.06297    -2.81380     0.01020    -0.00000    -0.00000
  Kinetic   474.40817   487.65773   552.96412    -2.70102     1.35255     0.88255
  Fock        0.00000     0.00000     0.00000     0.00000     0.00000     0.00000
  Total       0.01172    -0.02573    -0.02135    -0.03243     0.00000     0.00000
  in kB       0.27880    -0.61229    -0.50814    -0.77170     0.00000     0.00000

 VOLUME and BASIS-vectors are now :
  energy-cutoff  :      500.00
  volume of cell :       67.33
      direct lattice vectors                 reciprocal lattice vectors
     4.916532967  0.018666972 -0.000000000     0.202954364  0.116150574 -0.000000000
    -2.442100412  4.267175934 -0.000000000    -0.000887834  0.233838922  0.000000000
     0.000000000  0.000000000  3.202405412    -0.000000000  0.000000000  0.312265273

  length of vectors
     4.916568404  4.916568404  3.202405412     0.233840607  0.233840607  0.312265273

 FORCES acting on ions
    electron-ion (+dipol)            ewald-force                    non-local-force                 convergence-correction
   -.295E+01 0.171E+01 -.690E-05   0.291E+01 -.168E+01 0.327E-15   0.505E-01 -.292E-01 -.190E-18   0.431E-04 -.249E-04 0.237E-08
   0.295E+01 -.171E+01 -.690E-05   -.291E+01 0.168E+01 0.264E-15   -.505E-01 0.292E-01 -.461E-18   -.431E-04 0.249E-04 0.237E-08
   -.295E+01 0.171E+01 -.690E-05   0.291E+01 -.168E+01 -.213E-16   0.505E-01 -.292E-01 0.190E-18   0.431E-04 -.249E-04 0.237E-08
   0.295E+01 -.171E+01 -.690E-05   -.291E+01 0.168E+01 0.332E-15   -.505E-01 0.292E-01 -.515E-18   -.431E-04 0.249E-04 0.237E-08
   -.295E+01 0.171E+01 -.690E-05   0.291E+01 -.168E+01 0.429E-15   0.505E-01 -.292E-01 -.136E-18   0.431E-04 -.249E-04 0.237E-08
   0.295E+01 -.171E+01 -.690E-05   -.291E+01 0.168E+01 0.487E-15   -.505E-01 0.292E-01 0.813E-19   -.431E-04 0.249E-04 0.237E-08
   -.295E+01 0.171E+01 -.690E-05   0.291E+01 -.168E+01 -.276E-15   0.505E-01 -.292E-01 0.190E-18   0.431E-04 -.249E-04 0.237E-08
   0.295E+01 -.171E+01 -.690E-05   -.291E+01 0.168E+01 0.233E-15   -.505E-01 0.292E-01 0.298E-18   -.431E-04 0.249E-04 0.237E-08
   -.789E-04 0.460E-04 -.552E-04   -.178E-14 0.473E-13 0.177E-14   -.694E-16 -.971E-16 -.542E-18   0.497E-10 -.287E-10 0.190E-07

 POSITION                                       TOTAL-FORCE (eV/Angst)
     -0.00340      0.00196      0.23432         0.000970     -0.000560      0.000000
      1.23520      0.71547      0.23432        -0.000970      0.000560     -0.000000
      2.45487      0.01130      0.23432         0.000970     -0.000560      0.000000
      3.69347      0.72480      0.23432        -0.000970      0.000560     -0.000000
     -1.22445      2.13555      0.23432         0.000970     -0.000560      0.000000
      0.01415      2.84906      0.23432        -0.000970      0.000560     -0.000000
      1.23382      2.14488      0.23432         0.000970     -0.000560      0.000000
      2.47242      2.85839      0.23432        -0.000970      0.000560     -0.000000
    total drift:                               -0.000079      0.000046     -0.000055

  FREE ENERGIE OF THE ION-ELECTRON SYSTEM (eV)
  free  energy   TOTEN  =       -72.929761 eV

  energy  without entropy=      -72.929761  energy(sigma->0) =      -72.929761

 d Force = 0.1190973E-04[ 0.146E-05, 0.224E-04]  d Energy = 0.1277726E-02-0.127E-02
 d Force = 0.4402764E-02[ 0.437E-02, 0.443E-02]  d Ewald  = 0.1349168E+01-0.134E+01

 stress matrix after NEB project (eV)
      0.01172     -0.03243      0.00000
     -0.03243     -0.02573      0.00000
      0.00000      0.00000     -0.02135
  FORCES: max atom, RMS     0.001121    0.001121
  FORCE total and by dimension    0.003169    0.000970
  Stress total and by dimension    0.057956    0.032431

 reached required accuracy - stopping structural energy minimisation
 writing wavefunctions
 BZINTS: Fermi energy:  5.207064; 32.000000 electrons
         Band energy:-127.008866;  BLOECHL correction: -0.106137