 vasp.5.2.11 25Nov10 complex
 executed on             LinuxIFC date 2018.12.15  14:01:18

 INCAR:
 POTCAR:   PAW_PBE C 08Apr2002
 POTCAR:   PAW_PBE C 08Apr2002
   VRHFIN =C: s2p2

   TITEL  = PAW_PBE C 08Apr2002
   POMASS =   12.011; ZVAL   =    4.000    mass and valenz
   ENMAX  =  400.000; ENMIN  =  300.000 eV
   QCUT   =   -5.516; QGAM   =   11.032    optimization parameters

   Description
     l     E      TYP  RCUT    TYP  RCUT
     0   .000     23  1.200
     0   .000     23  1.200
     1   .000     23  1.500
     1  2.500     23  1.500
     2   .000      7  1.500

 PAW_PBE C 08Apr2002                    :

 POSCAR: graphite
  positions in direct lattice
  velocities in cartesian coordinates
 exchange correlation table for  LEXCH =        8
   RHO(1)=    0.500       N(1)  =     2000
   RHO(2)=  100.500       N(2)  =     4000

 VTST: version 3.1, (03/28/14)

 CHAIN: initializing optimizer

 OPT: Using VASP Dynamics algorithm
 CHAIN: Read ICHAIN            0

 POSCAR: graphite
  positions in direct lattice
  velocities in cartesian coordinates

 ion  position               nearest neighbor table
   1  1.000  0.000  0.073-   4 1.42   8 1.42   2 1.42
   2  0.333  0.167  0.073-   3 1.42   7 1.42   1 1.42
   3  0.500  0.000  0.073-   2 1.42   6 1.42   4 1.42
   4  0.833  0.167  0.073-   1 1.42   3 1.42   5 1.42
   5  1.000  0.500  0.073-   8 1.42   4 1.42   6 1.42
   6  0.333  0.667  0.073-   7 1.42   3 1.42   5 1.42
   7  0.500  0.500  0.073-   6 1.42   8 1.42   2 1.42
   8  0.833  0.667  0.073-   5 1.42   1 1.42   7 1.42

  LATTYP: Found a base centered orthorhombic cell.
 ALAT       =     4.9041094316
 B/A-ratio  =     1.7320774176
 C/A-ratio  =     0.7835771167

  Lattice vectors:

 A1 = (   4.9041659392,  -0.0000326247,   0.0000000000)
 A2 = (  -2.4521112234,   4.2471159754,   0.0000000000)
 A3 = (   0.0000000000,   0.0000000000,   3.8427479285)
 Subroutine PRICEL returns following result:

  LATTYP: Found a simple monoclinic cell.
 ALAT       =     2.4520971692
 B/A-ratio  =     1.5671271011
 C/A-ratio  =     1.7320375029
 COS(beta)  =    -0.8660287471

  Lattice vectors:

 A1 = (   1.2260627116,  -2.1235702848,   0.0000000000)
 A2 = (   0.0000000000,   0.0000000000,  -3.8427479285)
 A3 = (  -0.0000566531,   4.2471242574,   0.0000000000)

   4 primitive cells build up your supercell.

Analysis of symmetry for initial positions (statically):

 Routine SETGRP: Setting up the symmetry group for a
 base centered orthorhombic supercell.

 Subroutine GETGRP returns: Found  8 space group operations
 (whereof  2 operations were pure point group operations)
 out of a pool of  8 trial point group operations.

The static configuration has the point symmetry C_1h.
 The point group associated with its full space group is D_2h.

Analysis of symmetry for dynamics (positions and initial velocities):

 Subroutine DYNSYM returns: Found  8 space group operations
 (whereof  2 operations were pure point group operations)
 out of a pool of  8 trial space group operations
 (whereof  2 operations were pure point group operations)
 and found also     4 'primitive' translations

The dynamic configuration has the point symmetry C_1h.
 The point group associated with its full space group is D_2h.

 KPOINTS: kpoint for band-structure G-F-Q-Z-G
  interpolating k-points between supplied coordinates
  k-points in reciprocal lattice

 I would recommend the setting:
   dimension x,y,z NGX =    27 NGY =   27 NGZ =   21
 SYSTEM =  NAME
 POSCAR =  graphite

 Startparameter for this run:
   NWRITE =      2    write-flag & timer
   PREC   = medium    normal or accurate (medium, high low for compatibility)
   ISTART =      0    job   : 0-new  1-cont  2-samecut
   ICHARG =     11    charge: 1-file 2-atom 10-const
   ISPIN  =      1    spin polarized calculation?
   LNONCOLLINEAR =      F non collinear calculations
   LSORBIT =      F    spin-orbit coupling
   INIWAV =      1    electr: 0-lowe 1-rand  2-diag
   LASPH  =      F    aspherical Exc in radial PAW
   METAGGA=      F    non-selfconsistent MetaGGA calc.

 Electronic Relaxation 1
   ENCUT  =  500.0 eV  36.75 Ry    6.06 a.u.   8.94  8.94  7.01*2*pi/ulx,y,z
   ENINI  =  500.0     initial cutoff
   ENAUG  =  644.9 eV  augmentation charge cutoff
   NELM   =    100;   NELMIN=  5; NELMDL= -5     # of ELM steps
   EDIFF  = 0.1E-03   stopping-criterion for ELM
   LREAL  =      F    real-space projection
   LCOMPAT=      F    compatible to vasp.4.4
   GGA_COMPAT  = T    GGA compatible to vasp.4.4-vasp.4.6
   LMAXPAW     = -100 max onsite density
   LMAXMIX     =    2 max onsite mixed and CHGCAR
   VOSKOWN=      0    Vosko Wilk Nusair interpolation
   ROPT   =    0.00000
 Ionic relaxation
   EDIFFG = 0.1E-02   stopping-criterion for IOM
   NSW    =      0    number of steps for IOM
   NBLOCK =      1;   KBLOCK =      1    inner block; outer block
   IBRION =     -1    ionic relax: 0-MD 1-quasi-New 2-CG
   NFREE  =      0    steps in history (QN), initial steepest desc. (CG)
   ISIF   =      2    stress and relaxation
   IWAVPR =     10    prediction:  0-non 1-charg 2-wave 3-comb
   ISYM   =      2    0-nonsym 1-usesym 2-fastsym
   LCORR  =      T    Harris-Foulkes like correction to forces

   POTIM  = 0.5000    time-step for ionic-motion
   TEIN   =    0.0    initial temperature
   TEBEG  =    0.0;   TEEND  =   0.0 temperature during run
   SMASS  =  -3.00    Nose mass-parameter (am)
   estimated Nose-frequenzy (Omega)   =  0.10E-29 period in steps =****** mass=  -0.550E-27a.u.
   NPACO  =    256;   APACO  = 16.0  distance and # of slots for P.C.
   PSTRESS=    0.0 pullay stress

  Mass of Ions in am
   POMASS =  12.01
  Ionic Valenz
   ZVAL   =   4.00
  Atomic Wigner-Seitz radii
  virtual crystal weights
   VCA    =   1.00
   NELECT =      32.0000    total number of electrons
   NUPDOWN=      -1.0000    fix difference up-down

 DOS related values:
   EMIN   =  10.00;   EMAX   =-10.00  energy-range for DOS
   EFERMI =   0.00
   ISMEAR =     0;   SIGMA  =   0.10  broadening in eV -4-tet -1-fermi 0-gaus

 Electronic relaxation 2 (details)
   IALGO  =     38    algorithm
   LDIAG  =      T    sub-space diagonalisation (order eigenvalues)
   LSUBROT=      T    optimize rotation matrix (better conditioning)
   TURBO    =      0    0=normal 1=particle mesh
   IRESTART =      0    0=no restart 2=restart with 2 vectors
   NREBOOT  =      0    no. of reboots
   NMIN     =      0    reboot dimension
   EREF     =   0.00    reference energy to select bands
   IMIX   =      4    mixing-type and parameters
     AMIX     =   0.40;   BMIX     =  1.00
     AMIX_MAG =   1.60;   BMIX_MAG =  1.00
     AMIN     =   0.10
     WC   =   100.;   INIMIX=   1;  MIXPRE=   1

 Intra band minimization:
   WEIMIN = 0.0000     energy-eigenvalue tresh-hold
   EBREAK =  0.12E-05  absolut break condition
   DEPER  =   0.30     relativ break condition

   TIME   =   0.40     timestep for ELM

  volume/ion in A,a.u.               =      10.00        67.52
  Fermi-wavevector in a.u.,A,eV,Ry     =   1.206031  2.279067 19.789807  1.454510
  Thomas-Fermi vector in A             =   2.341710

 Write flags
   LWAVE  =      T    write WAVECAR
   LCHARG =      T    write CHGCAR
   LVTOT  =      F    write LOCPOT, total local potential
   LVHAR  =      F    write LOCPOT, Hartree potential only
   LELF   =      F    write electronic localiz. function (ELF)
   LORBIT =     11    0 simple, 1 ext, 2 COOP (PROOUT)

 Dipole corrections
   LMONO  =      F    monopole corrections only (constant potential shift)
   LDIPOL =      F    correct potential (dipole corrections)
   IDIPOL =      0    1-x, 2-y, 3-z, 4-all directions
   EPSILON=  1.0000000 bulk dielectric constant

 Exchange correlation treatment:
   GGA     =    --    GGA type
   VOSKOWN=      0    Vosko Wilk Nusair interpolation
   LHFCALC =     F    Hartree Fock is set to
   LHFONE  =     F    Hartree Fock one center treatment
   AEXX    =    0.0000 exact exchange contribution

 Linear response parameters
   LEPSILON=     F    determine dielectric tensor
   LRPA    =     F    only Hartree local field effects (RPA)
   LNABLA  =     F    use nabla operator in PAW spheres
   LVEL    =     F    velocity operator in full k-point grid
   LINTERFAST=   F  fast interpolation
   KINTER  =     0    interpolate to denser k-point grid
   CSHIFT  =0.1000    complex shift for real part using Kramers Kronig
   OMEGAMAX=  -1.0    maximum frequency
   RTIME   =    0.100 relaxation time in fs

 Orbital magnetization related:
   ORBITALMAG=     F  switch on orbital magnetization
   LCHIMAG   =     F  perturbation theory with respect to B field

 Static calculation
 charge density and potential remain constant during run
 non-spin polarized calculation
 Variant of blocked Davidson
 Davidson routine will perform the subspace rotation
 perform sub-space diagonalisation
    after iterative eigenvector-optimisation
 no mixing
 using additional bands            8
 reciprocal scheme for non local part
 calculate Harris-corrections to forces
   (improved forces if not selfconsistent)
 use gradient corrections
 WARNING: stress and forces are not correct
  (second derivative of E(xc) not defined)
 use of overlap-Matrix (Vanderbilt PP)
 Gauss-broadening in eV      SIGMA  =   0.10

  energy-cutoff  :      500.00
  volume of cell :       80.04
      direct lattice vectors                 reciprocal lattice vectors
     4.904165939 -0.000032625  0.000000000     0.203909055  0.117728756  0.000000000
    -2.452111223  4.247115975  0.000000000     0.000001566  0.235454800  0.000000000
     0.000000000  0.000000000  3.842747929     0.000000000  0.000000000  0.260230444

  length of vectors
     4.904165939  4.904165939  3.842747929     0.235454800  0.235454800  0.260230444

 k-points in units of 2pi/SCALE and weight: kpoint for band-structure G-F-Q-Z-G
   0.00000000  0.00000000  0.00000000       0.025
   0.00000009  0.01308082  0.00000000       0.025
   0.00000017  0.02616164  0.00000000       0.025
   0.00000026  0.03924247  0.00000000       0.025
   0.00000035  0.05232329  0.00000000       0.025
   0.00000044  0.06540411  0.00000000       0.025
   0.00000052  0.07848493  0.00000000       0.025
   0.00000061  0.09156576  0.00000000       0.025
   0.00000070  0.10464658  0.00000000       0.025
   0.00000078  0.11772740  0.00000000       0.025
   0.00000078  0.11772740  0.00000000       0.025
   0.00000078  0.11772740  0.01445725       0.025
   0.00000078  0.11772740  0.02891449       0.025
   0.00000078  0.11772740  0.04337174       0.025
   0.00000078  0.11772740  0.05782899       0.025
   0.00000078  0.11772740  0.07228623       0.025
   0.00000078  0.11772740  0.08674348       0.025
   0.00000078  0.11772740  0.10120073       0.025
   0.00000078  0.11772740  0.11565798       0.025
   0.00000078  0.11772740  0.13011522       0.025
   0.00000078  0.11772740  0.13011522       0.025
   0.00000070  0.10464658  0.13011522       0.025
   0.00000061  0.09156576  0.13011522       0.025
   0.00000052  0.07848493  0.13011522       0.025
   0.00000044  0.06540411  0.13011522       0.025
   0.00000035  0.05232329  0.13011522       0.025
   0.00000026  0.03924247  0.13011522       0.025
   0.00000017  0.02616164  0.13011522       0.025
   0.00000009  0.01308082  0.13011522       0.025
   0.00000000  0.00000000  0.13011522       0.025
   0.00000000  0.00000000  0.13011522       0.025
   0.00000000  0.00000000  0.11565798       0.025
   0.00000000  0.00000000  0.10120073       0.025
   0.00000000  0.00000000  0.08674348       0.025
   0.00000000  0.00000000  0.07228623       0.025
   0.00000000  0.00000000  0.05782899       0.025
   0.00000000  0.00000000  0.04337174       0.025
   0.00000000  0.00000000  0.02891449       0.025
   0.00000000  0.00000000  0.01445725       0.025
   0.00000000  0.00000000  0.00000000       0.025

 k-points in reciprocal lattice and weights: kpoint for band-structure G-F-Q-Z-G
   0.00000000  0.00000000  0.00000000       0.025
   0.00000000  0.05555556  0.00000000       0.025
   0.00000000  0.11111111  0.00000000       0.025
   0.00000000  0.16666667  0.00000000       0.025
   0.00000000  0.22222222  0.00000000       0.025
   0.00000000  0.27777778  0.00000000       0.025
   0.00000000  0.33333333  0.00000000       0.025
   0.00000000  0.38888889  0.00000000       0.025
   0.00000000  0.44444444  0.00000000       0.025
   0.00000000  0.50000000  0.00000000       0.025
   0.00000000  0.50000000  0.00000000       0.025
   0.00000000  0.50000000  0.05555556       0.025
   0.00000000  0.50000000  0.11111111       0.025
   0.00000000  0.50000000  0.16666667       0.025
   0.00000000  0.50000000  0.22222222       0.025
   0.00000000  0.50000000  0.27777778       0.025
   0.00000000  0.50000000  0.33333333       0.025
   0.00000000  0.50000000  0.38888889       0.025
   0.00000000  0.50000000  0.44444444       0.025
   0.00000000  0.50000000  0.50000000       0.025
   0.00000000  0.50000000  0.50000000       0.025
   0.00000000  0.44444444  0.50000000       0.025
   0.00000000  0.38888889  0.50000000       0.025
   0.00000000  0.33333333  0.50000000       0.025
   0.00000000  0.27777778  0.50000000       0.025
   0.00000000  0.22222222  0.50000000       0.025
   0.00000000  0.16666667  0.50000000       0.025
   0.00000000  0.11111111  0.50000000       0.025
   0.00000000  0.05555556  0.50000000       0.025
   0.00000000  0.00000000  0.50000000       0.025
   0.00000000  0.00000000  0.50000000       0.025
   0.00000000  0.00000000  0.44444444       0.025
   0.00000000  0.00000000  0.38888889       0.025
   0.00000000  0.00000000  0.33333333       0.025
   0.00000000  0.00000000  0.27777778       0.025
   0.00000000  0.00000000  0.22222222       0.025
   0.00000000  0.00000000  0.16666667       0.025
   0.00000000  0.00000000  0.11111111       0.025
   0.00000000  0.00000000  0.05555556       0.025
   0.00000000  0.00000000  0.00000000       0.025

 position of ions in fractional coordinates (direct lattice)
   0.99999710  0.00000290  0.07317000
   0.33333290  0.16666710  0.07317000
   0.49999710  0.00000290  0.07317000
   0.83333287  0.16666710  0.07317000
   0.99999710  0.50000290  0.07317000
   0.33333290  0.66666713  0.07317000
   0.49999710  0.50000290  0.07317000
   0.83333287  0.66666713  0.07317000

 position of ions in cartesian coordinates  (Angst):
   4.90414464 -0.00002033  0.28117386
   1.22603359  0.70784363  0.28117386
   2.45206167 -0.00000402  0.28117386
   3.67811642  0.70782731  0.28117386
   3.67808903  2.12353766  0.28117386
  -0.00002209  2.83140174  0.28117386
   1.22600606  2.12355397  0.28117386
   2.45206074  2.83138542  0.28117386

 k-point  1 :  0.00000.00000.0000  plane waves:    2001
 k-point  2 :  0.00000.05560.0000  plane waves:    2025
 k-point  3 :  0.00000.11110.0000  plane waves:    2025
 k-point  4 :  0.00000.16670.0000  plane waves:    2021
 k-point  5 :  0.00000.22220.0000  plane waves:    2025
 k-point  6 :  0.00000.27780.0000  plane waves:    2024
 k-point  7 :  0.00000.33330.0000  plane waves:    2016
 k-point  8 :  0.00000.38890.0000  plane waves:    2028
 k-point  9 :  0.00000.44440.0000  plane waves:    2024
 k-point 10 :  0.00000.50000.0000  plane waves:    2024
 k-point 11 :  0.00000.50000.0000  plane waves:    2024
 k-point 12 :  0.00000.50000.0556  plane waves:    2024
 k-point 13 :  0.00000.50000.1111  plane waves:    2026
 k-point 14 :  0.00000.50000.1667  plane waves:    2016
 k-point 15 :  0.00000.50000.2222  plane waves:    2032
 k-point 16 :  0.00000.50000.2778  plane waves:    2040
 k-point 17 :  0.00000.50000.3333  plane waves:    2050
 k-point 18 :  0.00000.50000.3889  plane waves:    2046
 k-point 19 :  0.00000.50000.4444  plane waves:    2028
 k-point 20 :  0.00000.50000.5000  plane waves:    2032
 k-point 21 :  0.00000.50000.5000  plane waves:    2032
 k-point 22 :  0.00000.44440.5000  plane waves:    2040
 k-point 23 :  0.00000.38890.5000  plane waves:    2030
 k-point 24 :  0.00000.33330.5000  plane waves:    2042
 k-point 25 :  0.00000.27780.5000  plane waves:    2036
 k-point 26 :  0.00000.22220.5000  plane waves:    2032
 k-point 27 :  0.00000.16670.5000  plane waves:    2034
 k-point 28 :  0.00000.11110.5000  plane waves:    2030
 k-point 29 :  0.00000.05560.5000  plane waves:    2022
 k-point 30 :  0.00000.00000.5000  plane waves:    2042
 k-point 31 :  0.00000.00000.5000  plane waves:    2042
 k-point 32 :  0.00000.00000.4444  plane waves:    2036
 k-point 33 :  0.00000.00000.3889  plane waves:    2018
 k-point 34 :  0.00000.00000.3333  plane waves:    2024
 k-point 35 :  0.00000.00000.2778  plane waves:    2024
 k-point 36 :  0.00000.00000.2222  plane waves:    2012
 k-point 37 :  0.00000.00000.1667  plane waves:    2012
 k-point 38 :  0.00000.00000.1111  plane waves:    2030
 k-point 39 :  0.00000.00000.0556  plane waves:    2030
 k-point 40 :  0.00000.00000.0000  plane waves:    2001

 maximum and minimum number of plane-waves per node :      2050     2001

 maximum number of plane-waves:      2050
 maximum index in each direction:
   IXMAX=    8   IYMAX=    8   IZMAX=    7
   IXMIN=   -8   IYMIN=   -9   IZMIN=   -7

 WARNING: aliasing errors must be expected set NGX to  34 to avoid them
 WARNING: aliasing errors must be expected set NGY to  36 to avoid them
 WARNING: aliasing errors must be expected set NGZ to  30 to avoid them
 aliasing errors are usually negligible using standard VASP settings
 and one can safely disregard these warnings

 serial   3D FFT for wavefunctions
 parallel 3D FFT for charge:
    minimum data exchange during FFTs selected (reduces bandwidth)

 initial charge density was supplied:
 number of electron      32.0000023 magnetization
 keeping initial charge density in first step

 Maximum index for augmentation-charges          171 (set IRDMAX)

 First call to EWALD:  gamma=   0.411
 Maximum number of real-space cells 3x 3x 3
 Maximum number of reciprocal cells 3x 3x 3

----------------------------------------- Iteration    1(   1)  ---------------------------------------

 eigenvalue-minimisations  :  1920
 total energy-change (2. order) : 0.9480172E+02  (-0.1559653E+04)
 number of electron      32.0000023 magnetization
 augmentation part       32.0000023 magnetization

 Free energy of the ion-electron system (eV)
  alpha Z        PSCENC =        65.15269163
  Ewald energy   TEWEN  =      -738.74955668
  -1/2 Hartree   DENC   =      -518.57552971
  -exchange  EXHF       =         0.00000000
  -V(xc)+E(xc)   XCENC  =       116.31825625
  PAW double counting   =       572.18391481     -582.63500242
  entropy T*S    EENTRO =        -0.00713234
  eigenvalues    EBANDS =         3.92670092
  atomic energy  EATOM  =      1177.18737338
  free energy    TOTEN  =        94.80171585 eV

  energy without entropy =       94.80884819  energy(sigma->0) =       94.80528202

 E-fermi :  13.2353     XC(G=0):  -9.3093     alpha+bet :-10.0341

 k-point   1 :       0.0000    0.0000    0.0000
  band No.  band energies     occupation
      1     -13.9213      2.00000
      2      -8.6982      2.00000
      3      -7.8677      2.00000
      4      -7.3189      2.00000
      5      -6.9234      2.00000
      6      -6.1880      2.00000
      7      -5.2658      2.00000
      8      -0.5961      2.00000
      9       2.4912      2.00000
     10       4.7534      2.00000
     11       5.6743      2.00000
     12       7.1241      2.00000
     13       8.3383      2.00000
     14       9.8180      2.00000
     15      10.8347      2.00000
     16      12.8938      2.00000
     17      15.1672      0.00000
     18      16.8400      0.00000
     19      17.6521      0.00000
     20      18.5582      0.00000
     21      19.6737      0.00000
     22      21.1591      0.00000
     23      23.1829      0.00000
     24      26.4861      0.00000

[...]

 eigenvalue-minimisations  :  2544
 total energy-change (2. order) :-0.1600694E+03  (-0.1549418E+03)
 number of electron      32.0000023 magnetization
 augmentation part       32.0000023 magnetization

[...]

----------------------------------------- Iteration    1(   6)  ---------------------------------------

 eigenvalue-minimisations  :  2760
 total energy-change (2. order) :-0.3587423E-04  (-0.3587327E-04)
 number of electron      32.0000023 magnetization
 augmentation part       32.0000023 magnetization

 Free energy of the ion-electron system (eV)
  alpha Z        PSCENC =        65.15269163
  Ewald energy   TEWEN  =      -738.74955668
  -1/2 Hartree   DENC   =      -518.57552971
  -exchange  EXHF       =         0.00000000
  -V(xc)+E(xc)   XCENC  =       116.31825625
  PAW double counting   =       572.18391481     -582.63500242
  entropy T*S    EENTRO =        -0.00000000
  eigenvalues    EBANDS =      -162.03490209
  atomic energy  EATOM  =      1177.18737338
  free energy    TOTEN  =       -71.15275481 eV

  energy without entropy =      -71.15275481  energy(sigma->0) =      -71.15275481

 average (electrostatic) potential at core
  the test charge radii are     0.6991
  (the norm of the test charge is              1.0000)
       1 -51.1899       2 -51.1901       3 -51.1899       4 -51.1901       5 -51.1899
       6 -51.1901       7 -51.1899       8 -51.1901

 E-fermi :   2.4285     XC(G=0):  -9.3093     alpha+bet :-10.0341

[...]

 k-point  40 :       0.0000    0.0000    0.0000
  band No.  band energies     occupation
      1     -15.6466      2.00000
      2     -10.2902      2.00000
      3     -10.2901      2.00000
      4     -10.2901      2.00000
      5      -9.2921      2.00000
      6      -9.2919      2.00000
      7      -9.2919      2.00000
      8      -3.2911      2.00000
      9      -2.3489      2.00000
     10      -2.3489      2.00000
     11      -2.3484      2.00000
     12       1.0984      2.00000
     13       1.0992      2.00000
     14       1.9031      2.00000
     15       1.9031      2.00000
     16       1.9031      2.00000
     17       6.1041      0.00000
     18       6.1044      0.00000
     19       6.1044      0.00000
     20       6.9817      0.00000
     21      11.5089      0.00000
     22      11.5093      0.00000
     23      11.5099      0.00000
     24      12.5036      0.00000

 soft charge-density along one line, spin component           1
         0         1         2         3         4         5         6         7         8         9
 total charge-density along one line

------------------------ aborting loop because EDIFF is reached ----------------------------------------

 total charge

# of ion     s       p       d       tot
  1        0.850   1.826   0.000   2.676
  2        0.850   1.827   0.000   2.676
  3        0.850   1.826   0.000   2.676
  4        0.850   1.827   0.000   2.676
  5        0.850   1.826   0.000   2.676
  6        0.850   1.827   0.000   2.676
  7        0.850   1.826   0.000   2.676
  8        0.850   1.827   0.000   2.676
tot        6.799  14.612   0.000  21.411

  FORCE on cell =-STRESS in cart. coord.  units (eV):
  Direction    XX          YY          ZZ          XY          YZ          ZX
  Alpha Z    65.15269    65.15269    65.15269
  Ewald     342.69539   342.68108 -1424.12721    -0.01239    -0.00000    -0.00000
  Hartree   459.66993   460.24402  -414.11556     0.49718     0.00000    -0.00000
  E(xc)    -117.92801  -117.92809  -122.61103    -0.00006    -0.00000     0.00000
  Local   -1198.18765 -1197.73259  1372.52493     0.39409    -0.00000     0.00000
  n-local   -33.29456   -32.79153   -29.17448    -0.01151    -0.00000    -0.00001
  augment    -3.34587    -3.35820    -3.07556    -0.01068     0.00000    -0.00001
  Kinetic   502.39454   478.85629   550.02007     0.00444    -0.00003     0.00005
  Fock        0.00000     0.00000     0.00000     0.00000     0.00000     0.00000
  Total       8.52111     3.75902    -5.40613    -4.12409     0.00000    -0.00000
  in kB     170.57181    75.24639  -108.21758   -82.55423     0.00000    -0.00000

 VOLUME and BASIS-vectors are now :
  energy-cutoff  :      500.00
  volume of cell :       80.04
      direct lattice vectors                 reciprocal lattice vectors
     4.904165939 -0.000032625  0.000000000     0.203909055  0.117728756  0.000000000
    -2.452111223  4.247115975  0.000000000     0.000001566  0.235454800  0.000000000
     0.000000000  0.000000000  3.842747929     0.000000000  0.000000000  0.260230444

  length of vectors
     4.904165939  4.904165939  3.842747929     0.235454800  0.235454800  0.260230444

 FORCES acting on ions
    electron-ion (+dipol)            ewald-force                    non-local-force                 convergence-correction
   0.779E+00 -.450E+00 -.702E-04   0.321E-03 -.148E-03 -.302E-15   -.308E+00 0.178E+00 0.325E-18   -.179E+00 0.103E+00 0.133E-04
   -.776E+00 0.448E+00 -.184E-04   -.335E-03 0.193E-03 -.258E-15   0.308E+00 -.178E+00 0.108E-18   0.179E+00 -.103E+00 0.110E-04
   0.779E+00 -.450E+00 -.702E-04   0.308E-03 -.178E-03 0.152E-16   -.308E+00 0.178E+00 0.325E-18   -.179E+00 0.103E+00 0.133E-04
   -.776E+00 0.448E+00 -.184E-04   -.289E-03 0.203E-03 0.681E-16   0.308E+00 -.178E+00 0.136E-18   0.179E+00 -.103E+00 0.110E-04
   0.779E+00 -.450E+00 -.702E-04   0.302E-03 -.174E-03 -.114E-15   -.308E+00 0.178E+00 0.325E-18   -.179E+00 0.103E+00 0.133E-04
   -.776E+00 0.448E+00 -.184E-04   -.320E-03 0.148E-03 -.496E-15   0.308E+00 -.178E+00 0.379E-18   0.179E+00 -.103E+00 0.110E-04
   0.779E+00 -.450E+00 -.702E-04   0.288E-03 -.204E-03 -.204E-15   -.308E+00 0.178E+00 0.325E-18   -.179E+00 0.103E+00 0.133E-04
   -.776E+00 0.448E+00 -.184E-04   -.274E-03 0.158E-03 -.148E-15   0.308E+00 -.178E+00 -.136E-18   0.179E+00 -.103E+00 0.110E-04
   0.106E-01 -.614E-02 -.354E-03   0.191E-13 -.401E-13 -.144E-14   -.111E-15 0.555E-16 0.179E-17   0.212E-05 -.123E-05 0.969E-04

 POSITION                                       TOTAL-FORCE (eV/Angst)
      4.90414     -0.00002      0.28117         0.290962     -0.167987     -0.000000
      1.22603      0.70784      0.28117        -0.290962      0.167987     -0.000000
      2.45206     -0.00000      0.28117         0.290962     -0.167987      0.000000
      3.67812      0.70783      0.28117        -0.290962      0.167987      0.000000
      3.67809      2.12354      0.28117         0.290962     -0.167987     -0.000000
     -0.00002      2.83140      0.28117        -0.290962      0.167987     -0.000000
      1.22601      2.12355      0.28117         0.290962     -0.167987      0.000000
      2.45206      2.83139      0.28117        -0.290962      0.167987      0.000000
    total drift:                                0.010615     -0.006137     -0.000258

  FREE ENERGIE OF THE ION-ELECTRON SYSTEM (eV)
  free  energy   TOTEN  =       -71.152755 eV

  energy  without entropy=      -71.152755  energy(sigma->0) =      -71.152755

 stress matrix after NEB project (eV)
      8.52111     -4.12409     -0.00000
     -4.12409      3.75902      0.00000
      0.00000      0.00000     -5.40613
  FORCES: max atom, RMS     0.335974    0.335974
  FORCE total and by dimension    0.950277    0.290962
  Stress total and by dimension   12.246717    8.521110
 writing wavefunctions

 total charge

# of ion     s       p       d       tot
  1        0.850   1.826   0.000   2.676
  2        0.850   1.827   0.000   2.676
  3        0.850   1.826   0.000   2.676
  4        0.850   1.827   0.000   2.676
  5        0.850   1.826   0.000   2.676
  6        0.850   1.827   0.000   2.676
  7        0.850   1.826   0.000   2.676
  8        0.850   1.827   0.000   2.676
tot        6.799  14.612   0.000  21.411