 vasp.5.2.11 25Nov10 complex
 executed on             LinuxIFC date 2018.12.14  11:03:05

 INCAR:
 POTCAR:   PAW_PBE C 08Apr2002
 POTCAR:   PAW_PBE C 08Apr2002
   VRHFIN =C: s2p2

   TITEL  = PAW_PBE C 08Apr2002
   POMASS =   12.011; ZVAL   =    4.000    mass and valenz
   ENMAX  =  400.000; ENMIN  =  300.000 eV
   QCUT   =   -5.516; QGAM   =   11.032    optimization parameters

   Description
     l     E      TYP  RCUT    TYP  RCUT
     0   .000     23  1.200
     0   .000     23  1.200
     1   .000     23  1.500
     1  2.500     23  1.500
     2   .000      7  1.500

 PAW_PBE C 08Apr2002                    :

 POSCAR: graphite
  positions in direct lattice
  velocities in cartesian coordinates
 exchange correlation table for  LEXCH =        8
   RHO(1)=    0.500       N(1)  =     2000
   RHO(2)=  100.500       N(2)  =     4000

 VTST: version 3.1, (03/28/14)

 CHAIN: initializing optimizer

 OPT: Using VASP QUASI-newton optimizer
 CHAIN: Read ICHAIN            0

 POSCAR: graphite
  positions in direct lattice
  velocities in cartesian coordinates

 ion  position               nearest neighbor table
   1  1.000  0.000  0.073-   4 1.41   8 1.43   2 1.43
   2  0.334  0.166  0.073-   3 1.41   7 1.43   1 1.43
   3  0.500  0.000  0.073-   2 1.41   6 1.43   4 1.43
   4  0.834  0.166  0.073-   1 1.41   3 1.43   5 1.43
   5  1.000  0.500  0.073-   8 1.41   4 1.43   6 1.43
   6  0.334  0.666  0.073-   7 1.41   3 1.43   5 1.43
   7  0.500  0.500  0.073-   6 1.41   8 1.43   2 1.43
   8  0.834  0.666  0.073-   5 1.41   1 1.43   7 1.43

  LATTYP: Found a base centered orthorhombic cell.
 ALAT       =     4.9488651109
 B/A-ratio  =     1.7169629270
 C/A-ratio  =     0.6470989524

  Lattice vectors:

 A1 = (   4.9165329680,   0.0186669714,   0.0000000000)
 A2 = (  -2.4421004125,   4.2671759346,   0.0000000000)
 A3 = (   0.0000000000,   0.0000000000,   3.2024054288)
 Subroutine PRICEL returns following result:

  LATTYP: Found a base centered orthorhombic cell.
 ALAT       =     2.4744325555
 B/A-ratio  =     1.7169629270
 C/A-ratio  =     1.2941979048

  Lattice vectors:

 A1 = (   2.4582666266,   0.0093334862,   0.0000000000)
 A2 = (  -1.2210501354,   2.1335878435,   0.0000000000)
 A3 = (   0.0000000000,   0.0000000000,   3.2024054288)

   4 primitive cells build up your supercell.

Analysis of symmetry for initial positions (statically):

 Routine SETGRP: Setting up the symmetry group for a
 base centered orthorhombic supercell.

 Subroutine GETGRP returns: Found  8 space group operations
 (whereof  2 operations were pure point group operations)
 out of a pool of  8 trial point group operations.

The static configuration has the point symmetry C_1h.
 The point group associated with its full space group is D_2h.

Analysis of symmetry for dynamics (positions and initial velocities):

 Subroutine DYNSYM returns: Found  8 space group operations
 (whereof  2 operations were pure point group operations)
 out of a pool of  8 trial space group operations
 (whereof  2 operations were pure point group operations)
 and found also     4 'primitive' translations

The dynamic configuration has the point symmetry C_1h.
 The point group associated with its full space group is D_2h.

Automatic generation of k-mesh.
 generate k-points for:    3    3    4

 Subroutine IBZKPT returns following result:

 Found     12 irreducible k-points:

 Following reciprocal coordinates:
            Coordinates               Weight
  0.000000  0.000000  0.000000      1.000000
  0.333333  0.000000  0.000000      4.000000
  0.333333  0.333333  0.000000      2.000000
 -0.333333  0.333333  0.000000      2.000000
  0.000000  0.000000  0.250000      2.000000
  0.333333  0.000000  0.250000      8.000000
  0.333333  0.333333  0.250000      4.000000
 -0.333333  0.333333  0.250000      4.000000
  0.000000  0.000000  0.500000      1.000000
  0.333333  0.000000  0.500000      4.000000
  0.333333  0.333333  0.500000      2.000000
 -0.333333  0.333333  0.500000      2.000000

 Following cartesian coordinates:
            Coordinates               Weight
  0.000000  0.000000  0.000000      1.000000
  0.067651  0.038717  0.000000      4.000000
  0.067356  0.116663  0.000000      2.000000
 -0.067947  0.039229  0.000000      2.000000
  0.000000  0.000000  0.078066      2.000000
  0.067651  0.038717  0.078066      8.000000
  0.067356  0.116663  0.078066      4.000000
 -0.067947  0.039229  0.078066      4.000000
  0.000000  0.000000  0.156133      1.000000
  0.067651  0.038717  0.156133      4.000000
  0.067356  0.116663  0.156133      2.000000
 -0.067947  0.039229  0.156133      2.000000

 TETIRR: Found     50 inequivalent tetrahedra from      216

 I would recommend the setting:
   dimension x,y,z NGX =    27 NGY =   27 NGZ =   18
 SYSTEM =  NAME
 POSCAR =  graphite

 Startparameter for this run:
   NWRITE =      2    write-flag & timer
   PREC   = medium    normal or accurate (medium, high low for compatibility)
   ISTART =      0    job   : 0-new  1-cont  2-samecut
   ICHARG =      2    charge: 1-file 2-atom 10-const
   ISPIN  =      1    spin polarized calculation?
   LNONCOLLINEAR =      F non collinear calculations
   LSORBIT =      F    spin-orbit coupling
   INIWAV =      1    electr: 0-lowe 1-rand  2-diag
   LASPH  =      F    aspherical Exc in radial PAW
   METAGGA=      F    non-selfconsistent MetaGGA calc.

 Electronic Relaxation 1
   ENCUT  =  500.0 eV  36.75 Ry    6.06 a.u.   8.96  8.96  5.84*2*pi/ulx,y,z
   ENINI  =  500.0     initial cutoff
   ENAUG  =  644.9 eV  augmentation charge cutoff
   NELM   =    100;   NELMIN=  5; NELMDL= -5     # of ELM steps
   EDIFF  = 0.1E-03   stopping-criterion for ELM
   LREAL  =      F    real-space projection
   LCOMPAT=      F    compatible to vasp.4.4
   GGA_COMPAT  = T    GGA compatible to vasp.4.4-vasp.4.6
   LMAXPAW     = -100 max onsite density
   LMAXMIX     =    2 max onsite mixed and CHGCAR
   VOSKOWN=      0    Vosko Wilk Nusair interpolation
   ROPT   =    0.00000
 Ionic relaxation
   EDIFFG = 0.1E-02   stopping-criterion for IOM
   NSW    =      0    number of steps for IOM
   NBLOCK =      1;   KBLOCK =      1    inner block; outer block
   IBRION =     -1    ionic relax: 0-MD 1-quasi-New 2-CG
   NFREE  =      0    steps in history (QN), initial steepest desc. (CG)
   ISIF   =      2    stress and relaxation
   IWAVPR =     10    prediction:  0-non 1-charg 2-wave 3-comb
   ISYM   =      2    0-nonsym 1-usesym 2-fastsym
   LCORR  =      T    Harris-Foulkes like correction to forces

   POTIM  = 0.5000    time-step for ionic-motion
   TEIN   =    0.0    initial temperature
   TEBEG  =    0.0;   TEEND  =   0.0 temperature during run
   SMASS  =  -3.00    Nose mass-parameter (am)
   estimated Nose-frequenzy (Omega)   =  0.10E-29 period in steps =****** mass=  -0.552E-27a.u.
   NPACO  =    256;   APACO  = 16.0  distance and # of slots for P.C.
   PSTRESS=    0.0 pullay stress

  Mass of Ions in am
   POMASS =  12.01
  Ionic Valenz
   ZVAL   =   4.00
  Atomic Wigner-Seitz radii
  virtual crystal weights
   VCA    =   1.00
   NELECT =      32.0000    total number of electrons
   NUPDOWN=      -1.0000    fix difference up-down

 DOS related values:
   EMIN   =  10.00;   EMAX   =-10.00  energy-range for DOS
   EFERMI =   0.00
   ISMEAR =    -5;   SIGMA  =   0.20  broadening in eV -4-tet -1-fermi 0-gaus

 Electronic relaxation 2 (details)
   IALGO  =     38    algorithm
   LDIAG  =      T    sub-space diagonalisation (order eigenvalues)
   LSUBROT=      T    optimize rotation matrix (better conditioning)
   TURBO    =      0    0=normal 1=particle mesh
   IRESTART =      0    0=no restart 2=restart with 2 vectors
   NREBOOT  =      0    no. of reboots
   NMIN     =      0    reboot dimension
   EREF     =   0.00    reference energy to select bands
   IMIX   =      4    mixing-type and parameters
     AMIX     =   0.40;   BMIX     =  1.00
     AMIX_MAG =   1.60;   BMIX_MAG =  1.00
     AMIN     =   0.10
     WC   =   100.;   INIMIX=   1;  MIXPRE=   1

 Intra band minimization:
   WEIMIN = 0.0000     energy-eigenvalue tresh-hold
   EBREAK =  0.12E-05  absolut break condition
   DEPER  =   0.30     relativ break condition

   TIME   =   0.40     timestep for ELM

  volume/ion in A,a.u.               =       8.42        56.80
  Fermi-wavevector in a.u.,A,eV,Ry     =   1.277572  2.414261 22.207291  1.632190
  Thomas-Fermi vector in A             =   2.410164

 Write flags
   LWAVE  =      T    write WAVECAR
   LCHARG =      T    write CHGCAR
   LVTOT  =      F    write LOCPOT, total local potential
   LVHAR  =      F    write LOCPOT, Hartree potential only
   LELF   =      F    write electronic localiz. function (ELF)
   LORBIT =     11    0 simple, 1 ext, 2 COOP (PROOUT)

 Dipole corrections
   LMONO  =      F    monopole corrections only (constant potential shift)
   LDIPOL =      F    correct potential (dipole corrections)
   IDIPOL =      0    1-x, 2-y, 3-z, 4-all directions
   EPSILON=  1.0000000 bulk dielectric constant

 Exchange correlation treatment:
   GGA     =    --    GGA type
   VOSKOWN=      0    Vosko Wilk Nusair interpolation
   LHFCALC =     F    Hartree Fock is set to
   LHFONE  =     F    Hartree Fock one center treatment
   AEXX    =    0.0000 exact exchange contribution

 Linear response parameters
   LEPSILON=     F    determine dielectric tensor
   LRPA    =     F    only Hartree local field effects (RPA)
   LNABLA  =     F    use nabla operator in PAW spheres
   LVEL    =     F    velocity operator in full k-point grid
   LINTERFAST=   F  fast interpolation
   KINTER  =     0    interpolate to denser k-point grid
   CSHIFT  =0.1000    complex shift for real part using Kramers Kronig
   OMEGAMAX=  -1.0    maximum frequency
   RTIME   =    0.100 relaxation time in fs

 Orbital magnetization related:
   ORBITALMAG=     F  switch on orbital magnetization
   LCHIMAG   =     F  perturbation theory with respect to B field

 Static calculation
 charge density and potential will be updated during run
 non-spin polarized calculation
 Variant of blocked Davidson
 Davidson routine will perform the subspace rotation
 perform sub-space diagonalisation
    after iterative eigenvector-optimisation
 modified Broyden-mixing scheme, WC =      100.0
 initial mixing is a Kerker type mixing with AMIX =  0.4000 and BMIX =      1.0000
 Hartree-type preconditioning will be used
 using additional bands           24
 reciprocal scheme for non local part
 calculate Harris-corrections to forces
   (improved forces if not selfconsistent)
 use gradient corrections
 use of overlap-Matrix (Vanderbilt PP)
 Fermi weights with tetrahedron method with Bloechl corrections

  energy-cutoff  :      500.00
  volume of cell :       67.33
      direct lattice vectors                 reciprocal lattice vectors
     4.916532968  0.018666971  0.000000000     0.202954364  0.116150574  0.000000000
    -2.442100413  4.267175935  0.000000000    -0.000887834  0.233838922  0.000000000
     0.000000000  0.000000000  3.202405429     0.000000000  0.000000000  0.312265271

  length of vectors
     4.916568405  4.916568405  3.202405429     0.233840607  0.233840607  0.312265271

 k-points in units of 2pi/SCALE and weight: read from INCAR
   0.00000000  0.00000000  0.00000000       0.028
   0.06765145  0.03871686  0.00000000       0.111
   0.06735551  0.11666317  0.00000000       0.056
  -0.06794740  0.03922945  0.00000000       0.056
   0.00000000  0.00000000  0.07806632       0.056
   0.06765145  0.03871686  0.07806632       0.222
   0.06735551  0.11666317  0.07806632       0.111
  -0.06794740  0.03922945  0.07806632       0.111
   0.00000000  0.00000000  0.15613264       0.028
   0.06765145  0.03871686  0.15613264       0.111
   0.06735551  0.11666317  0.15613264       0.056
  -0.06794740  0.03922945  0.15613264       0.056

 k-points in reciprocal lattice and weights: read from INCAR
   0.00000000  0.00000000  0.00000000       0.028
   0.33333333  0.00000000  0.00000000       0.111
   0.33333333  0.33333333  0.00000000       0.056
  -0.33333333  0.33333333  0.00000000       0.056
   0.00000000  0.00000000  0.25000000       0.056
   0.33333333  0.00000000  0.25000000       0.222
   0.33333333  0.33333333  0.25000000       0.111
  -0.33333333  0.33333333  0.25000000       0.111
   0.00000000  0.00000000  0.50000000       0.028
   0.33333333  0.00000000  0.50000000       0.111
   0.33333333  0.33333333  0.50000000       0.056
  -0.33333333  0.33333333  0.50000000       0.056

 position of ions in fractional coordinates (direct lattice)
   0.99953813  0.00046187  0.07317000
   0.33379187  0.16620813  0.07317000
   0.49953813  0.00046187  0.07317000
   0.83379185  0.16620813  0.07317000
   0.99953813  0.50046187  0.07317000
   0.33379187  0.66620815  0.07317000
   0.49953813  0.50046187  0.07317000
   0.83379185  0.66620815  0.07317000

 position of ions in cartesian coordinates  (Angst):
   4.91313424  0.02062923  0.23432000
   1.23520183  0.71547020  0.23432000
   2.45486775  0.01129574  0.23432000
   3.69346817  0.72480368  0.23432000
   3.69208403  2.15421720  0.23432000
   0.01415155  2.84905829  0.23432000
   1.23381755  2.14488371  0.23432000
   2.47241789  2.85839177  0.23432000

 k-point  1 :  0.00000.00000.0000  plane waves:    1721
 k-point  2 :  0.33330.00000.0000  plane waves:    1701
 k-point  3 :  0.33330.33330.0000  plane waves:    1709
 k-point  4 :  -.33330.33330.0000  plane waves:    1698
 k-point  5 :  0.00000.00000.2500  plane waves:    1680
 k-point  6 :  0.33330.00000.2500  plane waves:    1707
 k-point  7 :  0.33330.33330.2500  plane waves:    1715
 k-point  8 :  -.33330.33330.2500  plane waves:    1712
 k-point  9 :  0.00000.00000.5000  plane waves:    1688
 k-point 10 :  0.33330.00000.5000  plane waves:    1722
 k-point 11 :  0.33330.33330.5000  plane waves:    1720
 k-point 12 :  -.33330.33330.5000  plane waves:    1716

 maximum and minimum number of plane-waves per node :      1722     1680

 maximum number of plane-waves:      1722
 maximum index in each direction:
   IXMAX=    9   IYMAX=    8   IZMAX=    5
   IXMIN=   -9   IYMIN=   -9   IZMIN=   -6

 WARNING: aliasing errors must be expected set NGX to  38 to avoid them
 WARNING: aliasing errors must be expected set NGY to  36 to avoid them
 WARNING: aliasing errors must be expected set NGZ to  24 to avoid them
 aliasing errors are usually negligible using standard VASP settings
 and one can safely disregard these warnings

 serial   3D FFT for wavefunctions
 parallel 3D FFT for charge:
    minimum data exchange during FFTs selected (reduces bandwidth)

 Broyden mixing: mesh for mixing (old mesh)
   NGX = 17   NGY = 17   NGZ = 11
  (NGX  = 40   NGY  = 40   NGZ  = 28)
  gives a total of   3179 points

 initial charge density was supplied:
 charge density of overlapping atoms calculated
 number of electron      32.0000000 magnetization
 keeping initial charge density in first step

 Maximum index for augmentation-charges          110 (set IRDMAX)

 First call to EWALD:  gamma=   0.436
 Maximum number of real-space cells 3x 3x 3
 Maximum number of reciprocal cells 3x 3x 2

----------------------------------------- Iteration    1(   1)  ---------------------------------------

 BZINTS: Fermi energy:  8.783017; 32.000000 electrons
         Band energy: -79.464216;  BLOECHL correction: -0.268710

 eigenvalue-minimisations  :   960
 total energy-change (2. order) : 0.3792323E+02  (-0.1549691E+04)
 number of electron      32.0000000 magnetization
 augmentation part       32.0000000 magnetization

 Free energy of the ion-electron system (eV)
  alpha Z        PSCENC =        77.44856934
  Ewald energy   TEWEN  =      -976.82658119
  -1/2 Hartree   DENC   =      -262.23397508
  -exchange  EXHF       =         0.00000000
  -V(xc)+E(xc)   XCENC  =       111.01589515
  PAW double counting   =       302.65154477     -311.85538214
  entropy T*S    EENTRO =         0.00000000
  eigenvalues    EBANDS =       -79.46421576
  atomic energy  EATOM  =      1177.18737338
  free energy    TOTEN  =        37.92322847 eV

  energy without entropy =       37.92322847  energy(sigma->0) =       37.92322847

 E-fermi :   8.7830     XC(G=0): -11.1583     alpha+bet :-11.9278

 k-point   1 :       0.0000    0.0000    0.0000
  band No.  band energies     occupation
      1     -15.0281      2.00000
      2      -9.5489      2.00000
      3      -9.2723      2.00000
      4      -8.5845      2.00000
      5      -7.9901      2.00000
      6      -7.5260      2.00000
      7      -6.9846      2.00000
      8      -0.8983      2.00000
      9       0.9644      2.00000
     10       2.2002      2.00000
     11       2.9418      2.00000
     12       4.1250      2.00000
     13       4.8772      2.00000
     14       6.6179      2.00000
     15       7.5779      2.00000
     16       9.2828      1.68580
     17      10.9288      0.00000
     18      11.6716      0.00000
     19      13.5324      0.00000
     20      14.8829      0.00000
     21      15.7588      0.00000
     22      18.0897      0.00000
     23      18.3541      0.00000
     24      19.5771      0.00000
     25      19.8355      0.00000
     26      21.5316      0.00000
     27      21.9893      0.00000
     28      23.0580      0.00000
     29      25.1104      0.00000
     30      26.6776      0.00000
     31      27.5930      0.00000
     32      29.1915      0.00000
     33      32.6175      0.00000
     34      33.4273      0.00000
     35      34.9185      0.00000
     36      36.5191      0.00000
     37      36.9036      0.00000
     38      39.0096      0.00000
     39      41.6078      0.00000
     40      45.1033      0.00000

[...]

 BZINTS: Fermi energy:  3.891719; 32.000000 electrons
         Band energy:-192.078061;  BLOECHL correction: -0.063916

 eigenvalue-minimisations  :  1360
 total energy-change (2. order) :-0.1126138E+03  (-0.1077478E+03)
 number of electron      32.0000000 magnetization
 augmentation part       32.0000000 magnetization

[...]

 Broyden mixing:
  rms(total) = 0.11112E+01    rms(broyden)= 0.11110E+01
  rms(prec ) = 0.24530E+01
  weight for this iteration     100.00

[...]

 eigenvalues of (default mixing * dielectric matrix)
  average eigenvalue GAMMA=   2.0536
  2.0536

[...]

 eigenvalue-minimisations  :  1120
 total energy-change (2. order) :-0.2542284E-03  (-0.4022931E-04)
 number of electron      32.0000000 magnetization
 augmentation part        0.7731814 magnetization

 Broyden mixing:
  rms(total) = 0.25328E-02    rms(broyden)= 0.25314E-02
  rms(prec ) = 0.47418E-02
  weight for this iteration     100.00

 eigenvalues of (default mixing * dielectric matrix)
  average eigenvalue GAMMA=   1.9260
  3.1177  2.5143  1.8579  1.1937  0.9463

[...]

----------------------------------------- Iteration    1(  11)  ---------------------------------------

[...]

 eigenvalue-minimisations  :  1220
 total energy-change (2. order) : 0.7286516E-04  (-0.3592988E-05)
 number of electron      32.0000000 magnetization
 augmentation part        0.7731814 magnetization

 Free energy of the ion-electron system (eV)
  alpha Z        PSCENC =        77.44856934
  Ewald energy   TEWEN  =      -976.82658119
  -1/2 Hartree   DENC   =      -329.65524596
  -exchange  EXHF       =         0.00000000
  -V(xc)+E(xc)   XCENC  =       115.53315738
  PAW double counting   =       558.89724440     -569.26751909
  entropy T*S    EENTRO =         0.00000000
  eigenvalues    EBANDS =      -126.57691418
  atomic energy  EATOM  =      1177.18737338
  free energy    TOTEN  =       -73.25991592 eV

  energy without entropy =      -73.25991592  energy(sigma->0) =      -73.25991592

 average (electrostatic) potential at core
  the test charge radii are     0.6991
  (the norm of the test charge is              1.0000)
       1 -50.2042       2 -50.2044       3 -50.2042       4 -50.2044       5 -50.2042
       6 -50.2044       7 -50.2042       8 -50.2044

 E-fermi :   5.1792     XC(G=0): -10.6037     alpha+bet :-11.9278

[...]

 k-point  12 :      -0.3333    0.3333    0.5000
  band No.  band energies     occupation
      1     -13.4861      2.00000
      2     -11.5564      2.00000
      3      -9.7840      2.00000
      4      -9.7840      2.00000
      5      -6.0537      2.00000
      6      -6.0537      2.00000
      7      -4.3232      2.00000
      8      -2.7978      2.00000
      9      -2.7882      2.00000
     10      -2.7882      2.00000
     11      -0.5689      2.00000
     12      -0.4686      2.00000
     13      -0.0896      2.00000
     14       1.1014      2.00000
     15       1.4888      2.00000
     16       1.4888      2.00000
     17       6.9043     -0.03624
     18       6.9043      0.00000
     19       9.3045      0.00000
     20      12.9919      0.00000
     21      13.6729      0.00000
     22      14.0746      0.00000
     23      15.6633      0.00000
     24      15.6633      0.00000
     25      15.9778      0.00000
     26      16.1207      0.00000
     27      16.1207      0.00000
     28      17.4041      0.00000
     29      18.3162      0.00000
     30      19.5067      0.00000
     31      21.1364      0.00000
     32      21.1364      0.00000
     33      21.4598      0.00000
     34      22.9691      0.00000
     35      23.6537      0.00000
     36      23.6537      0.00000
     37      24.2280      0.00000
     38      25.7273      0.00000
     39      26.2073      0.00000
     40      26.2084      0.00000

 soft charge-density along one line, spin component           1
         0         1         2         3         4         5         6         7         8         9
 total charge-density along one line

------------------------ aborting loop because EDIFF is reached ----------------------------------------

 total charge

# of ion     s       p       d       tot
  1        0.866   1.792   0.000   2.658
  2        0.866   1.793   0.000   2.658
  3        0.866   1.793   0.000   2.658
  4        0.866   1.793   0.000   2.658
  5        0.866   1.793   0.000   2.658
  6        0.866   1.793   0.000   2.658
  7        0.866   1.792   0.000   2.658
  8        0.866   1.793   0.000   2.658
tot        6.924  14.340   0.000  21.265

  FORCE on cell =-STRESS in cart. coord.  units (eV):
  Direction    XX          YY          ZZ          XY          YZ          ZX
  Alpha Z    77.44857    77.44857    77.44857
  Ewald     103.33548    94.07981 -1174.24280    -8.01564    -0.00000     0.00000
  Hartree   284.60857   282.81850  -237.74281    -1.55025    -0.00000     0.00000
  E(xc)    -117.14585  -117.18110  -121.28114    -0.03053    -0.00000     0.00000
  Local    -796.68605  -786.86191   935.30333     8.50796    -0.00000     0.00000
  n-local   -28.37244   -28.36794   -26.26557     0.31326    -0.09314    -0.06141
  augment    -3.13165    -3.12030    -2.86343     0.00983     0.00005    -0.00008
  Kinetic   474.52688   487.78734   554.14159    -2.63276     1.18507     0.77641
  Fock        0.00000     0.00000     0.00000     0.00000     0.00000     0.00000
  Total       0.56221     0.62427     4.49775     0.05375     0.00000     0.00000
  in kB      13.37796    14.85470   107.02561     1.27889     0.00000     0.00000

 VOLUME and BASIS-vectors are now :
  energy-cutoff  :      500.00
  volume of cell :       67.33
      direct lattice vectors                 reciprocal lattice vectors
     4.916532968  0.018666971  0.000000000     0.202954364  0.116150574  0.000000000
    -2.442100413  4.267175935  0.000000000    -0.000887834  0.233838922  0.000000000
     0.000000000  0.000000000  3.202405429     0.000000000  0.000000000  0.312265271

  length of vectors
     4.916568405  4.916568405  3.202405429     0.233840607  0.233840607  0.312265271

 FORCES acting on ions
    electron-ion (+dipol)            ewald-force                    non-local-force                 convergence-correction
   -.297E+01 0.171E+01 0.339E-04   0.291E+01 -.168E+01 -.218E-16   0.415E-01 -.240E-01 -.379E-18   -.106E-02 0.611E-03 -.196E-08
   0.297E+01 -.171E+01 0.170E-04   -.291E+01 0.168E+01 0.582E-15   -.415E-01 0.240E-01 -.813E-19   0.106E-02 -.611E-03 -.296E-08
   -.297E+01 0.171E+01 0.339E-04   0.291E+01 -.168E+01 0.320E-15   0.415E-01 -.240E-01 -.379E-18   -.106E-02 0.611E-03 -.196E-08
   0.297E+01 -.171E+01 0.170E-04   -.291E+01 0.168E+01 0.816E-15   -.415E-01 0.240E-01 -.813E-19   0.106E-02 -.611E-03 -.296E-08
   -.297E+01 0.171E+01 0.339E-04   0.291E+01 -.168E+01 -.244E-15   0.415E-01 -.240E-01 -.813E-19   -.106E-02 0.611E-03 -.196E-08
   0.297E+01 -.171E+01 0.170E-04   -.291E+01 0.168E+01 0.498E-15   -.415E-01 0.240E-01 0.000E+00   0.106E-02 -.611E-03 -.296E-08
   -.297E+01 0.171E+01 0.339E-04   0.291E+01 -.168E+01 0.156E-15   0.415E-01 -.240E-01 -.813E-19   -.106E-02 0.611E-03 -.196E-08
   0.297E+01 -.171E+01 0.170E-04   -.291E+01 0.168E+01 0.709E-15   -.415E-01 0.240E-01 0.000E+00   0.106E-02 -.611E-03 -.296E-08
   0.124E-03 -.731E-04 0.203E-03   -.142E-13 -.377E-14 0.282E-14   -.139E-16 0.226E-15 -.108E-17   -.175E-08 0.101E-08 -.197E-07

 POSITION                                       TOTAL-FORCE (eV/Angst)
      4.91313      0.02063      0.23432        -0.022204      0.012819     -0.000000
      1.23520      0.71547      0.23432         0.022204     -0.012819     -0.000000
      2.45487      0.01130      0.23432        -0.022204      0.012819     -0.000000
      3.69347      0.72480      0.23432         0.022204     -0.012819     -0.000000
      3.69208      2.15422      0.23432        -0.022204      0.012819     -0.000000
      0.01415      2.84906      0.23432         0.022204     -0.012819     -0.000000
      1.23382      2.14488      0.23432        -0.022204      0.012819     -0.000000
      2.47242      2.85839      0.23432         0.022204     -0.012819     -0.000000
    total drift:                                0.000124     -0.000073      0.000203

  FREE ENERGIE OF THE ION-ELECTRON SYSTEM (eV)
  free  energy   TOTEN  =       -73.259916 eV

  energy  without entropy=      -73.259916  energy(sigma->0) =      -73.259916

 stress matrix after NEB project (eV)
      0.56221      0.05375      0.00000
      0.05375      0.62427      0.00000
      0.00000      0.00000      4.49775
  FORCES: max atom, RMS     0.025639    0.025639
  FORCE total and by dimension    0.072517    0.022204
  Stress total and by dimension    4.576172    4.497753
 writing wavefunctions

 total charge

# of ion     s       p       d       tot
  1        0.866   1.792   0.000   2.658
  2        0.866   1.793   0.000   2.658
  3        0.866   1.793   0.000   2.658
  4        0.866   1.793   0.000   2.658
  5        0.866   1.793   0.000   2.658
  6        0.866   1.793   0.000   2.658
  7        0.866   1.792   0.000   2.658
  8        0.866   1.793   0.000   2.658
tot        6.924  14.340   0.000  21.265

 BZINTS: Fermi energy:  5.179165; 32.000000 electrons
         Band energy:-126.576914;  BLOECHL correction: -0.096665