 vasp.5.2.11 25Nov10 complex
 executed on             LinuxIFC date 2018.12.15  13:01:57

 INCAR:
 POTCAR:   PAW_PBE C 08Apr2002
 POTCAR:   PAW_PBE C 08Apr2002
   VRHFIN =C: s2p2

   TITEL  = PAW_PBE C 08Apr2002
   POMASS =   12.011; ZVAL   =    4.000    mass and valenz
   ENMAX  =  400.000; ENMIN  =  300.000 eV
   QCUT   =   -5.516; QGAM   =   11.032    optimization parameters

   Description
     l     E      TYP  RCUT    TYP  RCUT
     0   .000     23  1.200
     0   .000     23  1.200
     1   .000     23  1.500
     1  2.500     23  1.500
     2   .000      7  1.500

 PAW_PBE C 08Apr2002                    :

 POSCAR: graphite
  positions in direct lattice
  velocities in cartesian coordinates
 exchange correlation table for  LEXCH =        8
   RHO(1)=    0.500       N(1)  =     2000
   RHO(2)=  100.500       N(2)  =     4000

 VTST: version 3.1, (03/28/14)

 CHAIN: initializing optimizer

 OPT: Using VASP Dynamics algorithm
 CHAIN: Read ICHAIN            0

 POSCAR: graphite
  positions in direct lattice
  velocities in cartesian coordinates

 ion  position               nearest neighbor table
   1  1.000  0.000  0.073-   4 1.42   8 1.42   2 1.42
   2  0.333  0.167  0.073-   3 1.42   7 1.42   1 1.42
   3  0.500  0.000  0.073-   2 1.42   6 1.42   4 1.42
   4  0.833  0.167  0.073-   1 1.42   3 1.42   5 1.42
   5  1.000  0.500  0.073-   8 1.42   4 1.42   6 1.42
   6  0.333  0.667  0.073-   7 1.42   3 1.42   5 1.42
   7  0.500  0.500  0.073-   6 1.42   8 1.42   2 1.42
   8  0.833  0.667  0.073-   5 1.42   1 1.42   7 1.42

  LATTYP: Found a base centered orthorhombic cell.
 ALAT       =     4.9041094316
 B/A-ratio  =     1.7320774176
 C/A-ratio  =     0.7835771167

  Lattice vectors:

 A1 = (   4.9041659392,  -0.0000326247,   0.0000000000)
 A2 = (  -2.4521112234,   4.2471159754,   0.0000000000)
 A3 = (   0.0000000000,   0.0000000000,   3.8427479285)
 Subroutine PRICEL returns following result:

  LATTYP: Found a simple monoclinic cell.
 ALAT       =     2.4520971692
 B/A-ratio  =     1.5671271011
 C/A-ratio  =     1.7320375029
 COS(beta)  =    -0.8660287471

  Lattice vectors:

 A1 = (   1.2260627116,  -2.1235702848,   0.0000000000)
 A2 = (   0.0000000000,   0.0000000000,  -3.8427479285)
 A3 = (  -0.0000566531,   4.2471242574,   0.0000000000)

   4 primitive cells build up your supercell.

Analysis of symmetry for initial positions (statically):

 Routine SETGRP: Setting up the symmetry group for a
 base centered orthorhombic supercell.

 Subroutine GETGRP returns: Found  8 space group operations
 (whereof  2 operations were pure point group operations)
 out of a pool of  8 trial point group operations.

The static configuration has the point symmetry C_1h.
 The point group associated with its full space group is D_2h.

Analysis of symmetry for dynamics (positions and initial velocities):

 Subroutine DYNSYM returns: Found  8 space group operations
 (whereof  2 operations were pure point group operations)
 out of a pool of  8 trial space group operations
 (whereof  2 operations were pure point group operations)
 and found also     4 'primitive' translations

The dynamic configuration has the point symmetry C_1h.
 The point group associated with its full space group is D_2h.

 KPOINTS: Automatic mesh

Automatic generation of k-mesh.

 Subroutine IBZKPT returns following result:

 Found     73 irreducible k-points:

 Following reciprocal coordinates:
            Coordinates               Weight
  0.000000  0.000000  0.000000      1.000000
  0.062500  0.000000  0.000000      4.000000
  0.125000  0.000000  0.000000      4.000000
  0.187500  0.000000  0.000000      4.000000
  0.250000  0.000000  0.000000      4.000000
  0.312500  0.000000  0.000000      4.000000
  0.375000  0.000000  0.000000      4.000000
  0.437500  0.000000  0.000000      4.000000
  0.500000  0.000000  0.000000      2.000000
  0.062500  0.062500  0.000000      2.000000
  0.125000  0.062500  0.000000      4.000000
  0.187500  0.062500  0.000000      4.000000
  0.250000  0.062500  0.000000      4.000000
  0.312500  0.062500  0.000000      4.000000
  0.375000  0.062500  0.000000      4.000000
  0.437500  0.062500  0.000000      4.000000
  0.500000  0.062500  0.000000      4.000000
 -0.437500  0.062500  0.000000      4.000000
 -0.375000  0.062500  0.000000      4.000000
 -0.312500  0.062500  0.000000      4.000000
 -0.250000  0.062500  0.000000      4.000000
 -0.187500  0.062500  0.000000      4.000000
 -0.125000  0.062500  0.000000      4.000000
 -0.062500  0.062500  0.000000      2.000000
  0.125000  0.125000  0.000000      2.000000
  0.187500  0.125000  0.000000      4.000000
  0.250000  0.125000  0.000000      4.000000
  0.312500  0.125000  0.000000      4.000000
  0.375000  0.125000  0.000000      4.000000
  0.437500  0.125000  0.000000      4.000000
  0.500000  0.125000  0.000000      4.000000
 -0.437500  0.125000  0.000000      4.000000
 -0.375000  0.125000  0.000000      4.000000
 -0.312500  0.125000  0.000000      4.000000
 -0.250000  0.125000  0.000000      4.000000
 -0.187500  0.125000  0.000000      4.000000
 -0.125000  0.125000  0.000000      2.000000
  0.187500  0.187500  0.000000      2.000000
  0.250000  0.187500  0.000000      4.000000
  0.312500  0.187500  0.000000      4.000000
  0.375000  0.187500  0.000000      4.000000
  0.437500  0.187500  0.000000      4.000000
  0.500000  0.187500  0.000000      4.000000
 -0.437500  0.187500  0.000000      4.000000
 -0.375000  0.187500  0.000000      4.000000
 -0.312500  0.187500  0.000000      4.000000
 -0.250000  0.187500  0.000000      4.000000
 -0.187500  0.187500  0.000000      2.000000
  0.250000  0.250000  0.000000      2.000000
  0.312500  0.250000  0.000000      4.000000
  0.375000  0.250000  0.000000      4.000000
  0.437500  0.250000  0.000000      4.000000
  0.500000  0.250000  0.000000      4.000000
 -0.437500  0.250000  0.000000      4.000000
 -0.375000  0.250000  0.000000      4.000000
 -0.312500  0.250000  0.000000      4.000000
 -0.250000  0.250000  0.000000      2.000000
  0.312500  0.312500  0.000000      2.000000
  0.375000  0.312500  0.000000      4.000000
  0.437500  0.312500  0.000000      4.000000
  0.500000  0.312500  0.000000      4.000000
 -0.437500  0.312500  0.000000      4.000000
 -0.375000  0.312500  0.000000      4.000000
 -0.312500  0.312500  0.000000      2.000000
  0.375000  0.375000  0.000000      2.000000
  0.437500  0.375000  0.000000      4.000000
  0.500000  0.375000  0.000000      4.000000
 -0.437500  0.375000  0.000000      4.000000
 -0.375000  0.375000  0.000000      2.000000
  0.437500  0.437500  0.000000      2.000000
  0.500000  0.437500  0.000000      4.000000
 -0.437500  0.437500  0.000000      2.000000
  0.500000  0.500000  0.000000      1.000000

 Following cartesian coordinates:
            Coordinates               Weight
  0.000000  0.000000  0.000000      1.000000
  0.012744  0.007358  0.000000      4.000000
  0.025489  0.014716  0.000000      4.000000
  0.038233  0.022074  0.000000      4.000000
  0.050977  0.029432  0.000000      4.000000
  0.063722  0.036790  0.000000      4.000000
  0.076466  0.044148  0.000000      4.000000
  0.089210  0.051506  0.000000      4.000000
  0.101955  0.058864  0.000000      2.000000
  0.012744  0.022074  0.000000      2.000000
  0.025489  0.029432  0.000000      4.000000
  0.038233  0.036790  0.000000      4.000000
  0.050977  0.044148  0.000000      4.000000
  0.063722  0.051506  0.000000      4.000000
  0.076466  0.058864  0.000000      4.000000
  0.089210  0.066222  0.000000      4.000000
  0.101955  0.073580  0.000000      4.000000
 -0.089210 -0.036790  0.000000      4.000000
 -0.076466 -0.029432  0.000000      4.000000
 -0.063721 -0.022074  0.000000      4.000000
 -0.050977 -0.014716  0.000000      4.000000
 -0.038233 -0.007358  0.000000      4.000000
 -0.025489 -0.000000  0.000000      4.000000
 -0.012744  0.007358  0.000000      2.000000
  0.025489  0.044148  0.000000      2.000000
  0.038233  0.051506  0.000000      4.000000
  0.050977  0.058864  0.000000      4.000000
  0.063722  0.066222  0.000000      4.000000
  0.076466  0.073580  0.000000      4.000000
  0.089210  0.080938  0.000000      4.000000
  0.101955  0.088296  0.000000      4.000000
 -0.089210 -0.022074  0.000000      4.000000
 -0.076466 -0.014716  0.000000      4.000000
 -0.063721 -0.007358  0.000000      4.000000
 -0.050977 -0.000000  0.000000      4.000000
 -0.038233  0.007358  0.000000      4.000000
 -0.025488  0.014716  0.000000      2.000000
  0.038233  0.066222  0.000000      2.000000
  0.050978  0.073580  0.000000      4.000000
  0.063722  0.080938  0.000000      4.000000
  0.076466  0.088296  0.000000      4.000000
  0.089211  0.095654  0.000000      4.000000
  0.101955  0.103012  0.000000      4.000000
 -0.089210 -0.007359  0.000000      4.000000
 -0.076466 -0.000001  0.000000      4.000000
 -0.063721  0.007358  0.000000      4.000000
 -0.050977  0.014716  0.000000      4.000000
 -0.038233  0.022074  0.000000      2.000000
  0.050978  0.088296  0.000000      2.000000
  0.063722  0.095654  0.000000      4.000000
  0.076466  0.103012  0.000000      4.000000
  0.089211  0.110370  0.000000      4.000000
  0.101955  0.117728  0.000000      4.000000
 -0.089210  0.007357  0.000000      4.000000
 -0.076466  0.014715  0.000000      4.000000
 -0.063721  0.022073  0.000000      4.000000
 -0.050977  0.029432  0.000000      2.000000
  0.063722  0.110370  0.000000      2.000000
  0.076466  0.117728  0.000000      4.000000
  0.089211  0.125086  0.000000      4.000000
  0.101955  0.132444  0.000000      4.000000
 -0.089210  0.022073  0.000000      4.000000
 -0.076465  0.029431  0.000000      4.000000
 -0.063721  0.036789  0.000000      2.000000
  0.076466  0.132444  0.000000      2.000000
  0.089211  0.139802  0.000000      4.000000
  0.101955  0.147160  0.000000      4.000000
 -0.089210  0.036789  0.000000      4.000000
 -0.076465  0.044147  0.000000      2.000000
  0.089211  0.154518  0.000000      2.000000
  0.101955  0.161876  0.000000      4.000000
 -0.089210  0.051505  0.000000      2.000000
  0.101955  0.176592  0.000000      1.000000

 TETIRR: Found    392 inequivalent tetrahedra from     1536

 I would recommend the setting:
   dimension x,y,z NGX =    27 NGY =   27 NGZ =   21
 SYSTEM =  NAME
 POSCAR =  graphite

 Startparameter for this run:
   NWRITE =      2    write-flag & timer
   PREC   = medium    normal or accurate (medium, high low for compatibility)
   ISTART =      0    job   : 0-new  1-cont  2-samecut
   ICHARG =      2    charge: 1-file 2-atom 10-const
   ISPIN  =      1    spin polarized calculation?
   LNONCOLLINEAR =      F non collinear calculations
   LSORBIT =      F    spin-orbit coupling
   INIWAV =      1    electr: 0-lowe 1-rand  2-diag
   LASPH  =      F    aspherical Exc in radial PAW
   METAGGA=      F    non-selfconsistent MetaGGA calc.

 Electronic Relaxation 1
   ENCUT  =  500.0 eV  36.75 Ry    6.06 a.u.   8.94  8.94  7.01*2*pi/ulx,y,z
   ENINI  =  500.0     initial cutoff
   ENAUG  =  644.9 eV  augmentation charge cutoff
   NELM   =    100;   NELMIN=  5; NELMDL= -5     # of ELM steps
   EDIFF  = 0.1E-03   stopping-criterion for ELM
[...]

 position of ions in fractional coordinates (direct lattice)
   0.99999710  0.00000290  0.07317000
   0.33333290  0.16666710  0.07317000
   0.49999710  0.00000290  0.07317000
   0.83333287  0.16666710  0.07317000
   0.99999710  0.50000290  0.07317000
   0.33333290  0.66666713  0.07317000
   0.49999710  0.50000290  0.07317000
   0.83333287  0.66666713  0.07317000

 position of ions in cartesian coordinates  (Angst):
   4.90414464 -0.00002033  0.28117386
   1.22603359  0.70784363  0.28117386
   2.45206167 -0.00000402  0.28117386
   3.67811642  0.70782731  0.28117386
   3.67808903  2.12353766  0.28117386
  -0.00002209  2.83140174  0.28117386
   1.22600606  2.12355397  0.28117386
   2.45206074  2.83138542  0.28117386

 k-point  1 :  0.00000.00000.0000  plane waves:    2001
 k-point  2 :  0.06250.00000.0000  plane waves:    2025
 k-point  3 :  0.12500.00000.0000  plane waves:    2017
 k-point  4 :  0.18750.00000.0000  plane waves:    2021
 k-point  5 :  0.25000.00000.0000  plane waves:    2029
 k-point  6 :  0.31250.00000.0000  plane waves:    2020
 k-point  7 :  0.37500.00000.0000  plane waves:    2028
 k-point  8 :  0.43750.00000.0000  plane waves:    2024
 k-point  9 :  0.50000.00000.0000  plane waves:    2024
 k-point 10 :  0.06250.06250.0000  plane waves:    2021
 k-point 11 :  0.12500.06250.0000  plane waves:    2023
 k-point 12 :  0.18750.06250.0000  plane waves:    2027
 k-point 13 :  0.25000.06250.0000  plane waves:    2027
 k-point 14 :  0.31250.06250.0000  plane waves:    2028
 k-point 15 :  0.37500.06250.0000  plane waves:    2018
 k-point 16 :  0.43750.06250.0000  plane waves:    2021
 k-point 17 :  0.50000.06250.0000  plane waves:    2021
 k-point 18 :  -.43750.06250.0000  plane waves:    2018
 k-point 19 :  -.37500.06250.0000  plane waves:    2028
 k-point 20 :  -.31250.06250.0000  plane waves:    2027
 k-point 21 :  -.25000.06250.0000  plane waves:    2027
 k-point 22 :  -.18750.06250.0000  plane waves:    2023
 k-point 23 :  -.12500.06250.0000  plane waves:    2021
 k-point 24 :  -.06250.06250.0000  plane waves:    2025
 k-point 25 :  0.12500.12500.0000  plane waves:    2017
 k-point 26 :  0.18750.12500.0000  plane waves:    2026
 k-point 27 :  0.25000.12500.0000  plane waves:    2025
 k-point 28 :  0.31250.12500.0000  plane waves:    2025
 k-point 29 :  0.37500.12500.0000  plane waves:    2022
 k-point 30 :  0.43750.12500.0000  plane waves:    2015
 k-point 31 :  0.50000.12500.0000  plane waves:    2022
 k-point 32 :  -.43750.12500.0000  plane waves:    2025
 k-point 33 :  -.37500.12500.0000  plane waves:    2025
 k-point 34 :  -.31250.12500.0000  plane waves:    2026
 k-point 35 :  -.25000.12500.0000  plane waves:    2017
 k-point 36 :  -.18750.12500.0000  plane waves:    2023
 k-point 37 :  -.12500.12500.0000  plane waves:    2017
 k-point 38 :  0.18750.18750.0000  plane waves:    2029
 k-point 39 :  0.25000.18750.0000  plane waves:    2035
 k-point 40 :  0.31250.18750.0000  plane waves:    2029
 k-point 41 :  0.37500.18750.0000  plane waves:    2015
 k-point 42 :  0.43750.18750.0000  plane waves:    2015
 k-point 43 :  0.50000.18750.0000  plane waves:    2029
 k-point 44 :  -.43750.18750.0000  plane waves:    2035
 k-point 45 :  -.37500.18750.0000  plane waves:    2029
 k-point 46 :  -.31250.18750.0000  plane waves:    2026
 k-point 47 :  -.25000.18750.0000  plane waves:    2027
 k-point 48 :  -.18750.18750.0000  plane waves:    2021
 k-point 49 :  0.25000.25000.0000  plane waves:    2023
 k-point 50 :  0.31250.25000.0000  plane waves:    2013
 k-point 51 :  0.37500.25000.0000  plane waves:    2003
 k-point 52 :  0.43750.25000.0000  plane waves:    2013
 k-point 53 :  0.50000.25000.0000  plane waves:    2023
 k-point 54 :  -.43750.25000.0000  plane waves:    2035
 k-point 55 :  -.37500.25000.0000  plane waves:    2025
 k-point 56 :  -.31250.25000.0000  plane waves:    2027
 k-point 57 :  -.25000.25000.0000  plane waves:    2029
 k-point 58 :  0.31250.31250.0000  plane waves:    2001
 k-point 59 :  0.37500.31250.0000  plane waves:    2001
 k-point 60 :  0.43750.31250.0000  plane waves:    2013
 k-point 61 :  0.50000.31250.0000  plane waves:    2029
 k-point 62 :  -.43750.31250.0000  plane waves:    2025
 k-point 63 :  -.37500.31250.0000  plane waves:    2028
 k-point 64 :  -.31250.31250.0000  plane waves:    2020
 k-point 65 :  0.37500.37500.0000  plane waves:    2003
 k-point 66 :  0.43750.37500.0000  plane waves:    2015
 k-point 67 :  0.50000.37500.0000  plane waves:    2022
 k-point 68 :  -.43750.37500.0000  plane waves:    2018
 k-point 69 :  -.37500.37500.0000  plane waves:    2028
 k-point 70 :  0.43750.43750.0000  plane waves:    2015
 k-point 71 :  0.50000.43750.0000  plane waves:    2021
 k-point 72 :  -.43750.43750.0000  plane waves:    2024
 k-point 73 :  0.50000.50000.0000  plane waves:    2024

 maximum and minimum number of plane-waves per node :      2035     2001

 maximum number of plane-waves:      2035
 maximum index in each direction:
   IXMAX=    9   IYMAX=    8   IZMAX=    7
   IXMIN=   -9   IYMIN=   -9   IZMIN=   -7

 WARNING: aliasing errors must be expected set NGX to  38 to avoid them
 WARNING: aliasing errors must be expected set NGY to  36 to avoid them
 WARNING: aliasing errors must be expected set NGZ to  30 to avoid them
 aliasing errors are usually negligible using standard VASP settings
 and one can safely disregard these warnings

 serial   3D FFT for wavefunctions
 parallel 3D FFT for charge:
    minimum data exchange during FFTs selected (reduces bandwidth)

 Broyden mixing: mesh for mixing (old mesh)
   NGX = 17   NGY = 17   NGZ = 15
  (NGX  = 40   NGY  = 40   NGZ  = 32)
  gives a total of   4335 points

 initial charge density was supplied:
 charge density of overlapping atoms calculated
 number of electron      32.0000000 magnetization
 keeping initial charge density in first step

 Maximum index for augmentation-charges          171 (set IRDMAX)

 First call to EWALD:  gamma=   0.411
 Maximum number of real-space cells 3x 3x 3
 Maximum number of reciprocal cells 3x 3x 3

----------------------------------------- Iteration    1(   1)  ---------------------------------------

 BZINTS: Fermi energy: 11.703302; 32.000000 electrons
         Band energy: -73.529230;  BLOECHL correction: -0.126750

 eigenvalue-minimisations  :  3504
 total energy-change (2. order) : 0.1075282E+03  (-0.1606190E+04)
 number of electron      32.0000000 magnetization
 augmentation part       32.0000000 magnetization

 Free energy of the ion-electron system (eV)
  alpha Z        PSCENC =        65.15269163
  Ewald energy   TEWEN  =      -738.74955668
  -1/2 Hartree   DENC   =      -424.07806645
  -exchange  EXHF       =         0.00000000
  -V(xc)+E(xc)   XCENC  =       110.74882809
  PAW double counting   =       302.65154477     -311.85538214
  entropy T*S    EENTRO =         0.00000000
  eigenvalues    EBANDS =       -73.52923004
  atomic energy  EATOM  =      1177.18737338
  free energy    TOTEN  =       107.52820257 eV

  energy without entropy =      107.52820257  energy(sigma->0) =      107.52820257

 E-fermi :  11.7033     XC(G=0):  -9.9841     alpha+bet :-10.0341

 k-point   1 :       0.0000    0.0000    0.0000
  band No.  band energies     occupation
      1     -16.5236      2.00000
      2     -11.7068      2.00000
      3     -10.8346      2.00000
      4     -10.2782      2.00000
      5      -9.8287      2.00000
      6      -9.0241      2.00000
      7      -8.1102      2.00000
      8      -2.6214      2.00000
      9      -0.8013      2.00000
     10       1.9221      2.00000
     11       3.3408      2.00000
     12       5.2575      2.00000
     13       6.1582      2.00000
     14       7.7598      2.00000
     15       9.8902      2.00000
     16      11.3324      2.00000
     17      14.4157     -0.47984
     18      15.9496      0.00000
     19      16.7693      0.00000
     20      18.1059      0.00000
     21      18.7248      0.00000
     22      20.2895      0.00000
     23      21.9035      0.00000
     24      25.6576      0.00000

[...]

 BZINTS: Fermi energy:  2.096580; 32.000000 electrons
         Band energy:-251.531427;  BLOECHL correction:  0.000000

 eigenvalue-minimisations  :  4596
 total energy-change (2. order) :-0.1780022E+03  (-0.1755947E+03)
 number of electron      32.0000000 magnetization
 augmentation part       32.0000000 magnetization

[...]

 Broyden mixing:
  rms(total) = 0.11444E+01    rms(broyden)= 0.11442E+01
  rms(prec ) = 0.26789E+01
  weight for this iteration     100.00

[...]

 eigenvalues of (default mixing * dielectric matrix)
  average eigenvalue GAMMA=   2.0095
  2.0095

[...]

 eigenvalue-minimisations  :  4188
 total energy-change (2. order) :-0.2115117E-01  (-0.9015616E-02)
 number of electron      32.0000023 magnetization
 augmentation part        0.8052394 magnetization

[...]

 Broyden mixing:
  rms(total) = 0.61778E-03    rms(broyden)= 0.61619E-03
  rms(prec ) = 0.17888E-02
  weight for this iteration     100.00

 eigenvalues of (default mixing * dielectric matrix)
  average eigenvalue GAMMA=   1.9129
  2.9092  2.5823  1.9610  0.9650  1.1470

[...]

----------------------------------------- Iteration    1(  11)  ---------------------------------------

[...]

 eigenvalue-minimisations  :  3732
 total energy-change (2. order) : 0.1188712E-04  (-0.1300273E-05)
 number of electron      32.0000023 magnetization
 augmentation part        0.8036728 magnetization

 Free energy of the ion-electron system (eV)
  alpha Z        PSCENC =        65.15269163
  Ewald energy   TEWEN  =      -738.74955668
  -1/2 Hartree   DENC   =      -518.56549626
  -exchange  EXHF       =         0.00000000
  -V(xc)+E(xc)   XCENC  =       116.31775533
  PAW double counting   =       572.09307231     -582.54387950
  entropy T*S    EENTRO =         0.00000000
  eigenvalues    EBANDS =      -161.96995562
  atomic energy  EATOM  =      1177.18737338
  free energy    TOTEN  =       -71.07799541 eV

  energy without entropy =      -71.07799541  energy(sigma->0) =      -71.07799541

 average (electrostatic) potential at core
  the test charge radii are     0.6991
  (the norm of the test charge is              1.0000)
       1 -51.1905       2 -51.1907       3 -51.1905       4 -51.1907       5 -51.1905
       6 -51.1907       7 -51.1905       8 -51.1907

 E-fermi :   4.0107     XC(G=0):  -9.3092     alpha+bet :-10.0341

[...]

 k-point  73 :       0.5000    0.5000    0.0000
  band No.  band energies     occupation
      1     -14.1561      2.00000
      2     -14.1561      2.00000
      3     -11.2866      2.00000
      4     -11.2866      2.00000
      5      -6.4935      2.00000
      6      -6.4935      2.00000
      7      -4.9600      2.00000
      8      -4.9600      2.00000
      9      -3.3640      2.00000
     10      -3.3640      2.00000
     11      -1.5695      2.00000
     12      -1.5695      2.00000
     13      -0.9563      2.00000
     14      -0.9563      2.00000
     15       1.5596      2.00000
     16       1.5596      2.00000
     17       7.1085      0.00000
     18       7.1085      0.00000
     19       8.8929      0.00000
     20       8.8929      0.00000
     21      11.5834      0.00000
     22      11.5834      0.00000
     23      12.2198      0.00000
     24      12.2198      0.00000

 soft charge-density along one line, spin component           1
         0         1         2         3         4         5         6         7         8         9
 total charge-density along one line

------------------------ aborting loop because EDIFF is reached ----------------------------------------

 total charge

# of ion     s       p       d       tot
  1        0.863   1.825   0.000   2.688
  2        0.863   1.825   0.000   2.688
  3        0.863   1.825   0.000   2.688
  4        0.863   1.825   0.000   2.688
  5        0.863   1.825   0.000   2.688
  6        0.863   1.825   0.000   2.688
  7        0.863   1.825   0.000   2.688
  8        0.863   1.825   0.000   2.688
tot        6.904  14.600   0.000  21.504

  FORCE on cell =-STRESS in cart. coord.  units (eV):
  Direction    XX          YY          ZZ          XY          YZ          ZX
  Alpha Z    65.15269    65.15269    65.15269
  Ewald     342.69539   342.68108 -1424.12721    -0.01239    -0.00000    -0.00000
  Hartree   472.86407   472.86242  -427.15320    -0.00143     0.00000    -0.00000
  E(xc)    -117.92762  -117.92770  -122.61057    -0.00007    -0.00000     0.00000
  Local   -1211.41908 -1211.40680  1384.92973     0.01063     0.00000    -0.00000
  n-local   -30.05814   -30.20858   -29.48947     0.04304     0.00000     0.00000
  augment    -3.29739    -3.29739    -2.95170     0.00000     0.00000    -0.00001
  Kinetic   476.03159   491.99688   571.74724    -4.60239    -0.00000     0.00000
  Fock        0.00000     0.00000     0.00000     0.00000     0.00000     0.00000
  Total       1.94633     1.94778    15.49750     0.00125     0.00000     0.00000
  in kB      38.96078    38.98979   310.22216     0.02512     0.00000     0.00000

 VOLUME and BASIS-vectors are now :
  energy-cutoff  :      500.00
  volume of cell :       80.04
      direct lattice vectors                 reciprocal lattice vectors
     4.904165939 -0.000032625  0.000000000     0.203909055  0.117728756  0.000000000
    -2.452111223  4.247115975  0.000000000     0.000001566  0.235454800  0.000000000
     0.000000000  0.000000000  3.842747929     0.000000000  0.000000000  0.260230444

  length of vectors
     4.904165939  4.904165939  3.842747929     0.235454800  0.235454800  0.260230444

 FORCES acting on ions
    electron-ion (+dipol)            ewald-force                    non-local-force                 convergence-correction
   0.149E-02 -.864E-03 -.807E-04   0.321E-03 -.148E-03 -.302E-15   0.276E-03 -.160E-03 -.542E-19   0.430E-04 -.249E-04 -.652E-08
   0.114E-02 -.661E-03 -.292E-04   -.335E-03 0.193E-03 -.258E-15   -.276E-03 0.160E-03 0.813E-19   -.429E-04 0.247E-04 -.138E-07
   0.149E-02 -.863E-03 -.807E-04   0.308E-03 -.178E-03 0.152E-16   0.276E-03 -.160E-03 0.108E-18   0.431E-04 -.249E-04 -.652E-08
   0.117E-02 -.661E-03 -.292E-04   -.289E-03 0.203E-03 0.681E-16   -.276E-03 0.160E-03 -.542E-19   -.430E-04 0.247E-04 -.138E-07
   0.149E-02 -.864E-03 -.807E-04   0.302E-03 -.174E-03 -.114E-15   0.276E-03 -.160E-03 0.542E-19   0.430E-04 -.248E-04 -.652E-08
   0.115E-02 -.683E-03 -.292E-04   -.320E-03 0.148E-03 -.496E-15   -.276E-03 0.160E-03 -.813E-19   -.429E-04 0.249E-04 -.138E-07
   0.149E-02 -.863E-03 -.807E-04   0.288E-03 -.204E-03 -.204E-15   0.276E-03 -.160E-03 -.108E-18   0.431E-04 -.248E-04 -.652E-08
   0.118E-02 -.683E-03 -.292E-04   -.274E-03 0.158E-03 -.148E-15   -.276E-03 0.160E-03 0.379E-18   -.430E-04 0.248E-04 -.138E-07
   0.106E-01 -.614E-02 -.439E-03   0.191E-13 -.401E-13 -.144E-14   0.347E-16 -.833E-16 0.325E-18   0.362E-06 -.209E-06 -.811E-07

 POSITION                                       TOTAL-FORCE (eV/Angst)
      4.90414     -0.00002      0.28117         0.000791     -0.000456      0.000000
      1.22603      0.70784      0.28117        -0.000791      0.000456     -0.000000
      2.45206     -0.00000      0.28117         0.000791     -0.000456     -0.000000
      3.67812      0.70783      0.28117        -0.000791      0.000456     -0.000000
      3.67809      2.12354      0.28117         0.000791     -0.000456      0.000000
     -0.00002      2.83140      0.28117        -0.000791      0.000456      0.000000
      1.22601      2.12355      0.28117         0.000791     -0.000456      0.000000
      2.45206      2.83139      0.28117        -0.000791      0.000456     -0.000000
    total drift:                                0.010621     -0.006141     -0.000439

  FREE ENERGIE OF THE ION-ELECTRON SYSTEM (eV)
  free  energy   TOTEN  =       -71.077995 eV

  energy  without entropy=      -71.077995  energy(sigma->0) =      -71.077995

 stress matrix after NEB project (eV)
      1.94633      0.00125      0.00000
      0.00125      1.94778      0.00000
     -0.00000      0.00000     15.49750
  FORCES: max atom, RMS     0.000913    0.000913
  FORCE total and by dimension    0.002582    0.000791
  Stress total and by dimension   15.740224   15.497503
 writing wavefunctions

 total charge

# of ion     s       p       d       tot
  1        0.863   1.825   0.000   2.688
  2        0.863   1.825   0.000   2.688
  3        0.863   1.825   0.000   2.688
  4        0.863   1.825   0.000   2.688
  5        0.863   1.825   0.000   2.688
  6        0.863   1.825   0.000   2.688
  7        0.863   1.825   0.000   2.688
  8        0.863   1.825   0.000   2.688
tot        6.904  14.600   0.000  21.504

 BZINTS: Fermi energy:  4.010741; 32.000000 electrons
         Band energy:-161.969956;  BLOECHL correction:  0.000000