 This version was compiled for i686-windows-msvc2008 on Dec 08 2011

 Pseudo atomic calculation performed for C 2s2 2p2

 Converged in 17 iterations to a total energy of -145.6516 eV

 Calculation not parallelised.

 ************************************ Title ************************************
 CASTEP calculation from Materials Studio

 ***************************** General Parameters ******************************

 output verbosity                               : normal  (1)
 write checkpoint data to                       : opt.check
 type of calculation                            : single point energy
 stress calculation                             : off
 density difference calculation                 : off
 electron localisation func (ELF) calculation   : off
 Hirshfeld analysis                             : on
 unlimited duration calculation
 timing information                             : on
 write final potential to formatted file        : off
 write final density to formatted file          : off
 write BibTeX reference list                    : on

 output         length unit                     : A
 output           mass unit                     : amu
 output           time unit                     : ps
 output         charge unit                     : e
 output         energy unit                     : eV
 output          force unit                     : eV/A
 output       velocity unit                     : A/ps
 output       pressure unit                     : GPa
 output     inv_length unit                     : 1/A
 output      frequency unit                     : cm-1
 output force constant unit                     : eV/A**2
 output         volume unit                     : A**3
 output   IR intensity unit                     : (D/A)**2/amu
 output         dipole unit                     : D
 output         efield unit                     : eV/A/e
 output        entropy unit                     : J/mol/K

 wavefunctions paging                           : none
 random number generator seed                   : randomised (170908629)
 data distribution                              : optimal for this architecture

 *********************** Exchange-Correlation Parameters ***********************

 using functional                               : Perdew Burke Ernzerhof
 Divergence correction                          : off
 DFT+D: Semi-empirical dispersion correction    : off

 ************************* Pseudopotential Parameters **************************

 pseudopotential representation                 : reciprocal space
 <beta|phi> representation                      : reciprocal space

 **************************** Basis Set Parameters *****************************

 plane wave basis set cut-off                   :   240.0000   eV
 size of standard grid                          :     1.5000
 size of   fine   gmax                          :    11.9052   1/A
 largest prime factor in FFT                    :          5
 finite basis set correction                    : none

 **************************** Electronic Parameters ****************************

 number of  electrons                           :  8.000
 net charge of system                           :  0.000
 net spin   of system                           :  0.000
 number of  up  spins                           :  4.000
 number of down spins                           :  4.000
 treating system as non-spin-polarized
 number of bands                                :          8

 ********************* Electronic Minimization Parameters **********************

 Method: Treating system as metallic with density mixing treatment of electrons,
         and number of  SD  steps               :          1
         and number of  CG  steps               :          4

 total energy / atom convergence tol.           : 0.2000E-05   eV
 eigen-energy convergence tolerance             : 0.5000E-06   eV
 max force / atom convergence tol.              : ignored
 convergence tolerance window                   :          3   cycles
 max. number of SCF cycles                      :        100
 number of fixed-spin iterations                :         10
 smearing scheme                                : Gaussian
 smearing width                                 : 0.1000       eV
 Fermi energy convergence tolerance             : 0.5000E-07   eV

 ************************** Density Mixing Parameters **************************

 density-mixing scheme                          : Pulay
 max. length of mixing history                  :         20
 charge density mixing amplitude                : 0.5000
 cut-off energy for mixing                      :  240.0       eV
 charge density mixing g-vector                 :  1.500       1/A

 *********************** Population Analysis Parameters ************************

 Population analysis with cutoff                :  3.000       A

                                      Unit Cell
        Real Lattice(A)                      Reciprocal Lattice(1/A)
   2.1336090  -1.2318397   0.0000000        2.9448626   0.0000000   0.0000000
   0.0000000   2.4636795   0.0000000        1.4724313   2.5503258   0.0000000
   0.0000000   0.0000000   3.2024100        0.0000000   0.0000000   1.9620178

                       Lattice parameters(A)       Cell Angles
                    a =    2.463679          alpha =   90.000000
                    b =    2.463679          beta  =   90.000000
                    c =    3.202410          gamma =  120.000000

                       Current cell volume =   16.833560       A**3

                                     Cell Contents
                         Total number of ions in cell =    2
                      Total number of species in cell =    1
                        Max number of any one species =    2

            x  Element    Atom        Fractional coordinates of atoms  x
            x            Number           u          v          w      x
            x  C            1        -0.333333   0.333333   0.000000   x
            x  C            2         0.333333  -0.333333   0.000000   x

                         No user defined ionic velocities

                                   Details of Species

                               Mass of species in AMU
                                    C   12.0109997

                          Electric Quadrupole Moment (Barn)
                                    C    0.0332700 Isotope 11

                          Files used for pseudopotentials:
                                    C C_00PBE.usp

                              k-Points For BZ Sampling
                       MP grid size for SCF calculation is  9  9  6
                         Number of kpoints used =          36

             +  Number       Fractional coordinates        Weight  +
             +     1   0.444444   0.444444   0.416667   0.0246914  +
             +     2   0.444444   0.444444   0.250000   0.0246914  +
             +     3   0.444444   0.444444   0.083333   0.0246914  +
             +     4   0.444444   0.333333   0.416667   0.0493827  +
             +     5   0.444444   0.333333   0.250000   0.0493827  +
             +     6   0.444444   0.333333   0.083333   0.0493827  +
             +     7   0.444444   0.000000   0.416667   0.0246914  +
             +     8   0.444444   0.000000   0.250000   0.0246914  +
             +     9   0.444444   0.000000   0.083333   0.0246914  +
             +    10   0.444444  -0.111111   0.416667   0.0493827  +
             +    11   0.444444  -0.111111   0.250000   0.0493827  +
             +    12   0.444444  -0.111111   0.083333   0.0493827  +
             +    13   0.444444  -0.222222   0.416667   0.0246914  +
             +    14   0.444444  -0.222222   0.250000   0.0246914  +
             +    15   0.444444  -0.222222   0.083333   0.0246914  +
             +    16   0.333333   0.333333   0.416667   0.0082305  +
             +    17   0.333333   0.333333   0.250000   0.0082305  +
             +    18   0.333333   0.333333   0.083333   0.0082305  +
             +    19   0.333333   0.000000   0.416667   0.0246914  +
             +    20   0.333333   0.000000   0.250000   0.0246914  +
             +    21   0.333333   0.000000   0.083333   0.0246914  +
             +    22   0.333333  -0.111111   0.416667   0.0493827  +
             +    23   0.333333  -0.111111   0.250000   0.0493827  +
             +    24   0.333333  -0.111111   0.083333   0.0493827  +
             +    25   0.222222   0.000000   0.416667   0.0246914  +
             +    26   0.222222   0.000000   0.250000   0.0246914  +
             +    27   0.222222   0.000000   0.083333   0.0246914  +
             +    28   0.222222  -0.111111   0.416667   0.0246914  +
             +    29   0.222222  -0.111111   0.250000   0.0246914  +
             +    30   0.222222  -0.111111   0.083333   0.0246914  +
             +    31   0.111111   0.000000   0.416667   0.0246914  +
             +    32   0.111111   0.000000   0.250000   0.0246914  +
             +    33   0.111111   0.000000   0.083333   0.0246914  +
             +    34   0.000000   0.000000   0.416667   0.0041152  +
             +    35   0.000000   0.000000   0.250000   0.0041152  +
             +    36   0.000000   0.000000   0.083333   0.0041152  +

                               Symmetry and Constraints

                      Number of symmetry operations   =          24
         There are no ionic constraints specified or generated for this cell
                      Maximum deviation from symmetry = 0.141001E-14     ANG
               Point group of crystal =    27: D6h, 6/mmm, 6/m 2/m 2/m
           Set iprint > 1 for details on symmetry rotations/translations

                        Centre of mass is NOT constrained

                         Number of cell constraints= 4
                         Cell constraints are:  1 1 3 0 0 0

                         External pressure/stress (GPa)
                          0.00000   0.00000   0.00000
                                    0.00000   0.00000
                                              0.00000

Final energy, E             =  -309.4957158837     eV
Final free energy (E-TS)    =  -309.4966445909     eV
(energies not corrected for finite basis set)

NB est. 0K energy (E-0.5TS)      =  -309.4961802373     eV

Writing model to opt.check

 ***************** Symmetrised Forces *****************
 *            Cartesian components (eV/A)             *
 *                   x            y            z      *
 * C         1      0.00000      0.00000      0.00000 *
 * C         2      0.00000      0.00000      0.00000 *

 Pseudo atomic calculation performed for C 2s2 2p2

 Converged in 17 iterations to a total energy of -145.6516 eV

Charge spilling parameter for spin component 1 = 0.85%

     Atomic Populations (Mulliken)
Species   Ion     s      p      d      f     Total  Charge (e)
  C        1     1.05   2.95   0.00   0.00   4.00     0.00
  C        2     1.05   2.95   0.00   0.00   4.00     0.00

     Bond                     Population      Length (A)
   C 001 --    C 002               3.04        1.42241

     Hirshfeld Analysis
Species   Ion     Hirshfeld Charge (e)
  C        1                 0.00
  C        2                 0.00

Writing model to opt.check

Writing analysis data to opt.castep_bin

 A BibTeX formatted list of references used in this run has been written to
 opt.bib

Initialisation time =      0.44 s
Calculation time    =      7.50 s
Finalisation time   =      0.11 s
Total time          =      8.05 s